
#===========================================================
# GENERAL PROCEDURES
#===========================================================
units		real	# g/mol, angstroms, fs, kcal/mol, K, atm, charge*angstrom
dimension	3	# 3 dimensional simulation
newton		on	# use Newton's 3rd law
boundary	p p p	# periodic boundary conditions
atom_style	full    # molecular + charge

#===========================================================
# FORCE FIELD DEFINITION
#===========================================================
special_bonds  lj   0.0 0.0 0.0  coul 0.0 0.0 0.0     # NO     1-4 LJ/COUL interactions
pair_style     hybrid lj/cut/coul/long 14.0 14.0 # outer_LJ outer_Coul (cutoff values, see LAMMPS Doc)
kspace_style   pppm 0.0001          # long-range electrostatics sum method
bond_style     harmonic             # parameters needed: k_bond, r0
angle_style    harmonic             # parameters needed: k_theta, theta0
dihedral_style hybrid opls            # parameters needed: V1, V2, V3, V4
pair_modify    shift yes mix arithmetic       # using Lorenz-Berthelot mixing rules

#===========================================================
# SETUP SIMULATIONS
#===========================================================

# READ IN COEFFICIENTS/COORDINATES/TOPOLOGY
read_data ${data_name}
read_data md-18.data
  orthogonal box = (-11.286 -11.286 -11.286) to (11.286 11.286 11.286)
  4 by 4 by 4 MPI processor grid
  reading atoms ...
  1002 atoms
  reading velocities ...
  1002 velocities
  scanning bonds ...
  1 = max bonds/atom
  scanning angles ...
  6 = max angles/atom
  scanning dihedrals ...
  3 = max dihedrals/atom
  reading bonds ...
  835 bonds
  reading angles ...
  1169 angles
  reading dihedrals ...
  501 dihedrals
  4 = max # of 1-2 neighbors
  3 = max # of 1-3 neighbors
  4 = max # of 1-4 neighbors
  5 = max # of special neighbors
include ${settings_name}
include md-18.in.settings
     # Non-bonded interactions (pair-wise)
     pair_coeff           1          1          lj/cut/coul/long     0.008370             2.469953
     pair_coeff           1          2          lj/cut/coul/long     0.001909             2.249713
     pair_coeff           1          3          lj/cut/coul/long     0.026873             3.130980
     pair_coeff           1          4          lj/cut/coul/long     0.036774             2.728958
     pair_coeff           2          2          lj/cut/coul/long     0.001000             1.784003
     pair_coeff           2          3          lj/cut/coul/long     0.003904             3.074540
     pair_coeff           2          4          lj/cut/coul/long     0.006268             2.609322
     pair_coeff           3          3          lj/cut/coul/long     0.203514             3.439990
     pair_coeff           3          4          lj/cut/coul/long     0.179366             3.226419
     pair_coeff           4          4          lj/cut/coul/long     0.202657             2.903387

     # Stretching interactions
     bond_coeff           1           366.904251           1.096103
     bond_coeff           2           612.219900           0.957501
     bond_coeff           3           368.709924           1.411527

     # Bending interactions
     angle_coeff          1           40.926667            108.205025
     angle_coeff          2           61.328715            112.232133
     angle_coeff          3           49.873049            108.741688

     # Dihedral interactions
     dihedral_coeff       1          opls                  0.105414            -0.205941             0.372587            -0.070860

# SET RUN PARAMETERS
timestep	1.0		# fs
run_style	verlet 		# Velocity-Verlet integrator
neigh_modify every 1 delay 0 check no one 10000 # More relaxed rebuild criteria can be used

#===========================================================
# RUN CONSTRAINED RELAXATION
#===========================================================

# SET OUTPUTS
thermo_style    custom step temp vol density etotal pe ebond eangle edihed ecoul elong evdwl enthalpy press
thermo_modify   format float %20.10f
thermo ${thermo_freq}
thermo 1000

# DECLARE RELEVANT OUTPUT VARIABLES
variable        my_step equal   step
variable        my_temp equal   temp
variable        my_rho  equal   density
variable        my_pe   equal   pe
variable        my_ebon equal   ebond
variable        my_eang equal   eangle
variable        my_edih equal   edihed
variable        my_evdw equal   evdwl
variable        my_eel  equal   (ecoul+elong)
variable        my_ent  equal   enthalpy
variable        my_P    equal   press
variable        my_vol  equal   vol

fix  averages all ave/time ${dump4avg} $(v_avg_freq/v_dump4avg) ${avg_freq} v_my_temp v_my_rho v_my_vol v_my_pe v_my_edih v_my_evdw v_my_eel v_my_ent v_my_P file thermo.avg
fix  averages all ave/time 100 $(v_avg_freq/v_dump4avg) ${avg_freq} v_my_temp v_my_rho v_my_vol v_my_pe v_my_edih v_my_evdw v_my_eel v_my_ent v_my_P file thermo.avg
fix  averages all ave/time 100 10 ${avg_freq} v_my_temp v_my_rho v_my_vol v_my_pe v_my_edih v_my_evdw v_my_eel v_my_ent v_my_P file thermo.avg
fix  averages all ave/time 100 10 1000 v_my_temp v_my_rho v_my_vol v_my_pe v_my_edih v_my_evdw v_my_eel v_my_ent v_my_P file thermo.avg

# INITIALIZE VELOCITIES AND CREATE THE CONSTRAINED RELAXATION FIX
velocity        all create ${ANNEAL_TEMP} ${vseed} mom yes rot yes     # DRAW VELOCITIES
velocity        all create 100.0 ${vseed} mom yes rot yes     
velocity        all create 100.0 18755 mom yes rot yes     

fix relax all nve/limit 0.01
run             10000
PPPM initialization ...
WARNING: Using 12-bit tables for long-range coulomb (../kspace.cpp:321)
  G vector (1/distance) = 0.185922
  grid = 8 8 8
  stencil order = 5
  estimated absolute RMS force accuracy = 0.00750692
  estimated relative force accuracy = 2.26069e-05
  using double precision FFTs
  3d grid and FFT values/proc = 343 8
Neighbor list info ...
  update every 1 steps, delay 0 steps, check no
  max neighbors/atom: 10000, page size: 100000
  master list distance cutoff = 16
  ghost atom cutoff = 16
  binsize = 8, bins = 3 3 3
  1 neighbor lists, perpetual/occasional/extra = 1 0 0
  (1) pair lj/cut/coul/long, perpetual
      attributes: half, newton on
      pair build: half/bin/newton
      stencil: half/bin/3d/newton
      bin: standard
Per MPI rank memory allocation (min/avg/max) = 8.549 | 8.677 | 9.157 Mbytes
Step Temp Volume Density TotEng PotEng E_bond E_angle E_dihed E_coul E_long E_vdwl Enthalpy Press 
       0       100.0000000000     11500.4529150015         0.7726314302      -257.4253469630      -555.8044329680       270.2344964825       323.0408288124        12.7221381524      2323.5500702622     -3092.9211576539      -392.4308090236      -292.2049238465      -207.3640472158 
    1000        26.2210142439     11500.4529150015         0.7726314302     -1376.5341562292     -1454.7721788714         9.6590403133        18.0394185478       -36.0374853819      2058.6589686932     -3095.2183265503      -409.8737944935     -1804.5450426706     -2551.9019383793 
    2000        19.2002351006     11500.4529150015         0.7726314302     -1424.1026993841     -1481.3921853881         8.6247356084        17.3820301136       -35.5534097904      2028.5521158280     -3095.2642511890      -405.1334059587     -1709.2030271123     -1699.8354528109 
    3000        17.7795597532     11500.4529150015         0.7726314302     -1451.2963444782     -1504.3468323656         8.8875267980        17.1777952843       -37.2493894226      2021.3747295248     -3094.6763980381      -419.8610965121     -1783.8041553254     -1982.4900578631 
    4000        16.5421860298     11500.4529150015         0.7726314302     -1469.6414110038     -1518.9998344848         8.5446233380        17.1295529979       -37.8270858896      2020.3467043040     -3094.8876364302      -432.3059928049     -1789.7716319374     -1908.6919450259 
    5000        16.0202569687     11500.4529150015         0.7726314302     -1484.9937518194     -1532.7948481383         8.5255542610        16.7426692516       -36.4670546029      2007.6298215595     -3095.0877113199      -434.1381272876     -1757.0990842360     -1622.3562232508 
    6000        13.9390835715     11500.4529150015         0.7726314302     -1495.8390065491     -1537.4303167073         8.3778194287        17.2328540305       -37.7346822164      2012.2245416686     -3094.9390306534      -442.5918189653     -1778.6473530280     -1686.1701195730 
    7000        12.8423160151     11500.4529150015         0.7726314302     -1505.0271756421     -1543.3459607899         8.0608518245        17.6666629225       -38.7935342009      2006.1735948648     -3095.4744887132      -440.9790474876     -1735.2588015427     -1372.6953005724 
    8000        12.1707911894     11500.4529150015         0.7726314302     -1511.7058956820     -1548.0209911924         8.2292880946        17.1411344794       -37.1173365840      2012.4499322352     -3095.3568555282      -453.3671538895     -1773.7552378718     -1562.4000357686 
    9000        12.1868924246     11500.4529150015         0.7726314302     -1517.7377792111     -1554.1009174400         8.2386349431        17.3881190442       -37.5571189224      2009.2851213832     -3094.8264484677      -456.6292254204     -1795.9487730228     -1658.7596177503 
   10000        11.6849495445     11500.4529150015         0.7726314302     -1521.4747096703     -1556.3401553213         8.1245311410        17.5165400001       -36.8141681289      2011.9128819590     -3094.1721296223      -462.9078106702     -1827.4389735269     -1824.2311650110 
Loop time of 13.8351 on 64 procs for 10000 steps with 1002 atoms

Performance: 62.450 ns/day, 0.384 hours/ns, 722.800 timesteps/s
98.8% CPU use with 64 MPI tasks x no OpenMP threads

MPI task timing breakdown:
Section |  min time  |  avg time  |  max time  |%varavg| %total
---------------------------------------------------------------
Pair    | 0.27217    | 1.9661     | 3.2923     |  51.9 | 14.21
Bond    | 0.011615   | 0.050109   | 0.076581   |   6.9 |  0.36
Kspace  | 1.4198     | 2.6679     | 4.371      |  44.8 | 19.28
Neigh   | 4.1045     | 5.1363     | 5.478      |  20.6 | 37.13
Comm    | 3.5574     | 3.9069     | 4.9048     |  22.8 | 28.24
Output  | 0.001617   | 0.0019784  | 0.0019968  |   0.1 |  0.01
Modify  | 0.0090599  | 0.010399   | 0.011547   |   0.7 |  0.08
Other   |            | 0.09542    |            |       |  0.69

Nlocal:    15.6562 ave 25 max 0 min
Histogram: 6 1 2 2 2 4 16 14 12 5
Nghost:    4615.23 ave 5066 max 4121 min
Histogram: 4 3 5 10 5 10 12 7 5 3
Neighs:    11663.3 ave 22806 max 0 min
Histogram: 7 0 3 5 14 11 11 6 5 2

Total # of neighbors = 746451
Ave neighs/atom = 744.961
Ave special neighs/atom = 5
Neighbor list builds = 10000
Dangerous builds not checked
unfix relax

#===========================================================
# RUN RAMPED ANNEAL
#===========================================================

# REINITIALIZE THE VELOCITIES AND CREATE THE ANNEALING FIX
velocity        all create ${ANNEAL_TEMP} ${vseed} mom yes rot yes     # DRAW VELOCITIES
velocity        all create 100.0 ${vseed} mom yes rot yes     
velocity        all create 100.0 18755 mom yes rot yes     

fix mom all momentum 1000 linear 1 1 1 angular # Zero out system linear and angular momentum every ps
fix anneal all npt temp ${ANNEAL_TEMP} ${FINAL_TEMP} 100.0 iso ${pressure} ${pressure} 1000.0 # NPT, nose-hoover 100 fs T relaxation
fix anneal all npt temp 100.0 ${FINAL_TEMP} 100.0 iso ${pressure} ${pressure} 1000.0 
fix anneal all npt temp 100.0 298.0 100.0 iso ${pressure} ${pressure} 1000.0 
fix anneal all npt temp 100.0 298.0 100.0 iso 1.0 ${pressure} 1000.0 
fix anneal all npt temp 100.0 298.0 100.0 iso 1.0 1.0 1000.0 

# CREATE COORDINATE DUMPS FOR ANNEAL
dump anneal all custom ${coords_freq} anneal.lammpstrj id type x y z mol
dump anneal all custom 1000 anneal.lammpstrj id type x y z mol
dump_modify anneal sort id format float %20.10g

# RUN RAMPED ANNEAL
run ${nSteps_ramp}
run 50000
PPPM initialization ...
WARNING: Using 12-bit tables for long-range coulomb (../kspace.cpp:321)
  G vector (1/distance) = 0.185922
  grid = 8 8 8
  stencil order = 5
  estimated absolute RMS force accuracy = 0.00750692
  estimated relative force accuracy = 2.26069e-05
  using double precision FFTs
  3d grid and FFT values/proc = 343 8
Per MPI rank memory allocation (min/avg/max) = 9.828 | 10.33 | 10.54 Mbytes
Step Temp Volume Density TotEng PotEng E_bond E_angle E_dihed E_coul E_long E_vdwl Enthalpy Press 
   10000       100.0000000000     11500.4529150015         0.7726314302     -1257.9610693163     -1556.3401553213         8.1245311410        17.5165400001       -36.8141681289      2011.9128819590     -3094.1721296223      -462.9078106702     -1388.2495729369      -776.8108136273 
   11000        91.7786499076     10272.8194982351         0.8649632543     -1000.8318692395     -1274.6801659817       118.9130439747       107.6762223357       -22.3736734151      2071.8063287369     -3094.1181613111      -456.5839263028     -1523.2763764059     -3487.1820524061 
   12000       112.4482025960      9885.0404505680         0.8988947924      -958.1227363499     -1293.6446554848        82.8841686742       106.2514554089       -15.1804832864      2095.8309896839     -3094.7154623523      -468.7153236131      -738.3367939446      1524.5636864489 
   13000       106.4950290560      9691.8138376976         0.9168161432      -961.8988453445     -1279.6577396825        98.0022495288       116.7970824617       -14.9583847643      2102.2732349812     -3094.8618052815      -486.9101166083      -986.2284019571      -172.1286812273 
   14000       111.8277406393      9764.0604688289         0.9100324001      -947.0394170983     -1280.7100075178        93.3210591296       120.4327607615       -15.4881283582      2084.1782061259     -3094.6682249327      -468.4856802438     -1171.9037058053     -1579.1163846194 
   15000       120.4891072449      9529.9345196194         0.9323895527      -920.3718070603     -1279.8861039933        99.9972052168       120.1860910860       -13.0231891047      2097.1060974099     -3094.8614968390      -489.2908117622     -1062.6209034439     -1023.4902510741 
   16000       122.4742119222      9531.7596424393         0.9322110205      -921.2777359246     -1286.7151700499       100.0542861303       111.6967502185       -10.4013482009      2097.7000702625     -3094.8316283197      -490.9333001406     -1137.7520491270     -1557.2466261549 
   17000       127.2159536070      9466.7513589049         0.9386125236      -876.3098029443     -1255.8956025693       107.7556421359       130.2469165023        -9.6376055576      2110.9762842912     -3095.1742726477      -500.0625672935     -1068.1850762713     -1389.7675000568 
   18000       134.5088601555      9609.7900566842         0.9246415719      -825.2824009257     -1226.6287084536       121.7070430496       129.0384718050       -12.4447447211      2116.0466719004     -3094.8693166612      -486.1068338262     -1003.2631209603     -1269.9399051742 
   19000       134.3953396057      9526.1105702115         0.9327638303      -838.8574735701     -1239.8650595188       106.2012131279       132.6029252019        -8.9100352204      2113.3306067291     -3095.0884775499      -488.0012918073      -665.4774804360      1247.9795646180 
   20000       140.2491615205      9462.7596487077         0.9390084620      -816.2485984997     -1234.7227647741       110.5098951108       140.0238410590       -14.2855736471      2124.8272244695     -3094.6612479420      -501.1369038243      -693.2293845687       891.4135861985 
   21000       140.6141850452      9494.2632086435         0.9358926742      -779.2262134301     -1198.7895335615       115.4127988169       154.1855900156       -13.4455827253      2122.7412191724     -3095.0455475875      -482.6380112536      -637.5126163616      1023.4682272228 
   22000       144.5786557563      9633.8451241156         0.9223328037      -759.2146576648     -1190.6071292687       124.8580714885       148.8574689192        -8.5925842408      2125.8179441304     -3094.7014623557      -486.8465672102      -602.1562734341      1117.8552624024 
   23000       152.4144603220      9662.3919999432         0.9196078345      -728.5819995844     -1183.3548732326       118.8873485365       159.5245056404        -7.3740141709      2122.2216169698     -3094.0100525895      -482.6042776189      -606.8481405527       863.8748837438 
   24000       153.0841070021      9617.8349690268         0.9238681483      -705.7127977137     -1162.4837570055       122.8341857444       162.7854070270        -5.7769624038      2120.7311843981     -3095.0741246342      -467.9834471370      -444.7167509228      1860.7186864147 
   25000       160.0390079657      9728.0250804195         0.9134034205      -665.0885082439     -1142.6114374633       128.2675255980       177.6186468754        -5.5713546499      2130.0575446559     -3095.0261638769      -477.9576360657      -682.3568988109      -121.7170146040 
   26000       162.3897514990      9741.6592472834         0.9121250454      -649.1438569798     -1133.6809132682       137.9243544538       170.1840648051        -4.5992368755      2143.6873146702     -3094.9542883444      -485.9231219774      -597.9518486361       360.3241279227 
   27000       165.8809413597      9749.0498505227         0.9114335776      -620.5139253850     -1115.4679620706       141.6156661822       177.4595001320        -1.5679491562      2133.4121843681     -3094.2222744977      -472.1650890989      -556.7444166879       448.5128503524 
   28000       172.2518386977      9676.4537288658         0.9182714693      -601.8819906857     -1115.8454526186       141.5978372730       171.7408484006        -4.3630721340      2149.5185640020     -3094.4535163909      -479.8861137693      -567.0684498039       246.6925782616 
   29000       174.6674990026      9711.7643471486         0.9149327626      -567.8688865464     -1089.0401736181       154.8397366841       186.8773797785        -1.8472766593      2145.9570651067     -3094.3052657121      -480.5618128161      -763.7938691488     -1383.2981357191 
   30000       178.9309815061      9810.8317468144         0.9056939934      -561.8366793143     -1095.7293065119       143.3093718877       178.6039342993        -2.5666023428      2144.4212411499     -3095.1216513580      -464.3756001481      -415.1648017817      1025.0974052992 
   31000       181.8969030090      9920.7244310061         0.8956615462      -527.7535704291     -1070.4958870987       155.6367282338       184.4020174546        -0.8054276600      2155.9499888232     -3095.2154453919      -470.4637485584      -501.7701633205       179.5877966501 
   32000       186.0151942372      9833.9713442343         0.9035628713      -495.2838839476     -1050.3143203429       159.2174739106       196.7597926980        -5.8124380817      2167.7398470865     -3093.6668498687      -474.5521460876      -710.2356442614     -1498.7740954544 
   33000       185.6658936131     10001.3832246237         0.8884382474      -447.4947528428     -1001.4829492286       161.0105463958       224.9073288020        -1.3750749292      2184.9291108166     -3094.4699763870      -476.4848839269      -576.1215703884      -881.8517206579 
   34000       196.2638265390      9953.3095522425         0.8927293316      -453.6085205278     -1039.2187323134       157.0716430644       208.5244020045         6.0974739776      2138.0058379046     -3094.0774126949      -454.8406765696      -571.5731911975      -812.6593924727 
   35000       200.4640684748      9873.9960468730         0.8999002371      -408.5553890742     -1006.6982443576       185.0239189947       201.9842436462         0.5744889160      2175.0108708804     -3094.1661779738      -475.1255888212      -220.7267587114      1304.3464281792 
   36000       199.3345772040      9941.7652267843         0.8937659642      -351.0541137683      -945.8268033216       194.4639904275       215.0016871315         3.7282611408      2196.1543699612     -3094.5869128470      -460.5881991357      -268.5847375186       568.7917876237 
   37000       206.6352667922     10237.3084900349         0.8679636246      -340.0890385616      -956.6454589800       177.5948406959       221.1556481468         8.6179354677      2171.8905785788     -3094.8685486561      -441.0359132131      -160.1611701486      1205.1379289207 
   38000       214.7304271632     10233.5019271145         0.8682864817      -298.0358585726      -938.7465445168       186.1319211935       210.0135302216         4.2355659666      2217.6439751085     -3093.1532452865      -463.6182917205      -512.8088452636     -1439.0619542661 
   39000       204.8162240955     10103.4368789411         0.8794642348      -329.9484789291      -941.0772563752       177.0019641168       226.8777274740         6.2083444592      2200.3645806999     -3094.8161192411      -456.7137538838      -577.0064702987     -1676.6942857438 
   40000       222.4302007985     10269.2348277879         0.8652651860      -248.0814950671      -911.7666952087       188.2918772933       240.9772617324         5.3967124431      2176.5054410301     -3094.3687215731      -428.5692661346      -102.2966722805       973.4156825863 
   41000       232.7268467904     10439.6325933405         0.8511421551      -207.0106956011      -901.4189339426       199.1352882697       237.6144015169        -2.6791574742      2173.3494145419     -3094.3244438612      -414.5144369357      -185.4561884152       141.5718781886 
   42000       233.6347089194     10367.5844520618         0.8570570536      -163.7887882370      -860.9058973012       206.1924927702       242.9403338099         2.0395392013      2211.4046355207     -3093.5722508544      -429.9106477490        36.8508391293      1326.9765294233 
   43000       222.8793450653     10557.6330793418         0.8416291149      -167.7448224554      -832.7701751552       190.2691385161       273.7508591598         0.6801292439      2219.3674602372     -3094.4553084070      -422.3824539051        90.6300235590      1678.0611273318 
   44000       231.9372375611     10354.9825748655         0.8581000807      -176.7946370584      -868.8468465986       198.8581692355       260.4504623109         1.2439918354      2204.1632015985     -3093.7415316401      -439.8211399388        86.3897220141      1742.7488867243 
   45000       230.2157720902     10171.3598838748         0.8735912882      -150.3673154662      -837.2830320683       208.7765636497       264.8996480059         7.3307298838      2209.9866215482     -3094.2471324644      -434.0294626916       146.3260830620      2000.1058177379 
   46000       243.3156891091     10486.1103125707         0.8473696269       -65.4892057420      -791.4923350123       230.9926644996       259.0345340533         8.9775769193      2231.0249821566     -3093.8953635303      -427.6267291109      -502.6782192004     -2858.7681051115 
   47000       246.1059793736     10500.9352393619         0.8461733342       -74.6665137706      -808.9952856293       216.6015294992       264.9769581270         5.7652242055      2223.9827959639     -3093.9509732844      -426.3708201403      -261.2419354687     -1218.2896715563 
   48000       265.0445086575     10461.6719157713         0.8493490768         9.7860975619      -781.0512848767       213.9793673532       279.4975453137         3.0981969481      2260.1448007937     -3094.1257033777      -443.6454919078      -410.0450886845     -2751.6786265380 
   49000       259.0259138914     10716.1270880348         0.8291812248       -43.2838270855      -816.1629814706       220.5130830083       253.0795643984         4.0565290370      2231.2841651846     -3094.4346070445      -430.6617160544      -296.3786942898     -1619.4576404578 
   50000       262.5669068752     10964.8586092104         0.8103717248        33.8820090049      -749.5627278809       217.1133613904       286.2957269331         4.4088151780      2273.2518696013     -3093.7921219605      -436.8403790232       276.1149987122      1514.7967481301 
   51000       269.6216696223     10716.2942424889         0.8291682911        40.1435847930      -764.3510886974       223.6643880885       264.9515761065         3.2647090215      2253.9536533270     -3094.5800886599      -415.6053265810       574.0973119084      3416.5132015959 
   52000       267.1186416013     11126.7435508020         0.7985814846        98.6584233957      -698.3677379632       250.5831198262       288.0124839675         8.1583847561      2251.1583425835     -3093.8729172162      -402.4071518803        77.7775066604      -128.6783826510 
   53000       270.8626580977     11018.7252894104         0.8064101019        95.9184789214      -712.2790446395       248.8133515909       271.6174892953         4.5903370628      2258.3857914505     -3093.2629440569      -402.4230699822      -130.6032785136     -1409.6220263573 
   54000       271.9822780824     10703.6170433715         0.8301503452       138.4277481306      -673.1104873071       256.7380456988       310.7083920111         9.4069185592      2244.1222533539     -3093.4820662314      -400.6040306986      -142.3933474843     -1798.9673347668 
   55000       287.8427164983     10520.3309701063         0.8446132930       190.6793193974      -668.1831472222       246.8961679552       317.8249565576        14.3934205866      2271.9802227345     -3093.5782457646      -425.6996692915       765.2045492676      3744.5860307676 
   56000       287.2126432349     10890.8616153999         0.8158777237       209.4653904977      -647.5170692775       256.2438662971       324.8708115704        10.7565122517      2283.2389227039     -3092.9268837579      -429.7002983427       592.4569008893      2411.2987340578 
   57000       292.1947808330     10779.5133992642         0.8243054259       267.3003000985      -604.5478163052       255.6521402735       345.4706473259        13.9254863291      2304.6867818589     -3093.7703034507      -430.5125686419       238.8499636723      -180.9724059615 
   58000       280.3059710286     11069.9563564749         0.8026780863       215.1695741740      -621.2048201986       269.8294294708       311.0538117813         1.6355640030      2301.7111257368     -3093.9359676844      -411.4987835061       414.4302088835      1234.2402674361 
   59000       287.1500486275     10937.6410112308         0.8123882814       257.3708209560      -599.4248696015       271.6688343263       320.4728076504        14.9469791794      2288.6105679084     -3093.0496369691      -402.0744216969       229.8410568497      -172.5849557645 
   60000       298.6072160329     11322.5675231634         0.7847700060       285.2830432981      -605.6984386458       261.6053577529       333.8496746508        10.2309609503      2296.2138546709     -3093.3770443537      -414.2212423172        26.4621374987     -1567.3953141123 
Loop time of 78.2975 on 64 procs for 50000 steps with 1002 atoms

Performance: 55.174 ns/day, 0.435 hours/ns, 638.590 timesteps/s
99.1% CPU use with 64 MPI tasks x no OpenMP threads

MPI task timing breakdown:
Section |  min time  |  avg time  |  max time  |%varavg| %total
---------------------------------------------------------------
Pair    | 7.9088     | 11.994     | 17.872     |  75.7 | 15.32
Bond    | 0.23259    | 0.29401    | 0.35778    |   5.5 |  0.38
Kspace  | 8.4138     | 14.429     | 18.529     |  69.5 | 18.43
Neigh   | 21.868     | 28.444     | 30.442     |  56.4 | 36.33
Comm    | 18.593     | 20.928     | 27.718     |  66.5 | 26.73
Output  | 0.030138   | 0.030206   | 0.030637   |   0.0 |  0.04
Modify  | 1.238      | 1.4764     | 1.9085     |  18.3 |  1.89
Other   |            | 0.7023     |            |       |  0.90

Nlocal:    15.6562 ave 23 max 10 min
Histogram: 2 8 6 17 5 11 9 1 3 2
Nghost:    4690.73 ave 4775 max 4594 min
Histogram: 1 4 7 4 14 8 10 7 5 4
Neighs:    11877.7 ave 21376 max 6019 min
Histogram: 7 10 8 11 9 7 4 5 2 1

Total # of neighbors = 760173
Ave neighs/atom = 758.656
Ave special neighs/atom = 5
Neighbor list builds = 50000
Dangerous builds not checked
unfix anneal

# RUN EQUILIBRATION PHASE AT FINAL TEMP
fix anneal all npt temp ${FINAL_TEMP} ${FINAL_TEMP} 100.0 iso ${pressure} ${pressure} 1000.0 # NPT, nose-hoover 100 fs T relaxation
fix anneal all npt temp 298.0 ${FINAL_TEMP} 100.0 iso ${pressure} ${pressure} 1000.0 
fix anneal all npt temp 298.0 298.0 100.0 iso ${pressure} ${pressure} 1000.0 
fix anneal all npt temp 298.0 298.0 100.0 iso 1.0 ${pressure} 1000.0 
fix anneal all npt temp 298.0 298.0 100.0 iso 1.0 1.0 1000.0 
run ${nSteps_ramp}
run 50000
PPPM initialization ...
WARNING: Using 12-bit tables for long-range coulomb (../kspace.cpp:321)
  G vector (1/distance) = 0.186241
  grid = 8 8 8
  stencil order = 5
  estimated absolute RMS force accuracy = 0.00739167
  estimated relative force accuracy = 2.22598e-05
  using double precision FFTs
  3d grid and FFT values/proc = 343 8
Per MPI rank memory allocation (min/avg/max) = 10.44 | 10.54 | 10.55 Mbytes
Step Temp Volume Density TotEng PotEng E_bond E_angle E_dihed E_coul E_long E_vdwl Enthalpy Press 
   60000       298.6072160329     11322.5675231634         0.7847700060       285.2850533056      -605.6964286383       261.6053577529       333.8496746508        10.2309609503      2301.5059767727     -3098.6671564479      -414.2212423172        26.4739477127     -1567.3359649742 
   61000       287.3077077285     10806.8995130476         0.8222165268       261.5959276643      -595.6701846778       242.8243825737       343.1464007286         9.3074787601      2348.2665212189     -3098.1351939435      -441.0797740156       225.5605946181      -228.6396452552 
   62000       292.3510002330     11386.1543875453         0.7803873969       295.3892421296      -576.9250002921       269.6042648177       326.1941681874        10.1539713682      2319.8589698976     -3098.8827092575      -403.8536653055       166.2118305145      -777.9176416174 
   63000       304.8497849710     10847.4304633911         0.8191443507       320.7801946561      -588.8278074285       293.3158538493       315.2856932292        13.1997462533      2305.4178513336     -3098.6200130830      -417.4269390109        32.8373827473     -1820.1344816051 
   64000       296.5970700034     11073.4254190409         0.8024266248       299.0351233123      -585.9485032816       261.1609280238       339.3829514969        12.1036046852      2286.0830818591     -3098.0193672986      -386.6597020480       484.6488086296      1149.3495212988 
   65000       296.1450819789     11660.0407852677         0.7620566298       332.2816076311      -551.3533812262       290.9249042115       324.7466849639        12.2910034213      2314.2303594151     -3099.2981571192      -394.2481761188       358.8880564158       156.4627479047 
   66000       307.1883209024     11302.6883488830         0.7861502599       349.2419249550      -567.3437792677       273.3374467863       306.6239440114        14.8184579504      2292.0618199606     -3098.4657265060      -355.7197214703       274.1474981608      -455.5646994478 
   67000       291.3286559941     11424.4921120179         0.7777686129       305.4750463459      -563.7887346801       277.1848125984       318.6698885676         8.7096238157      2330.6707904509     -3098.8296222100      -400.1942279026         4.0616037374     -1809.0468982527 
   68000       303.2535698386     11153.3158702930         0.7966788968       318.3576935915      -586.4875363704       285.2416055517       307.7034883914        15.0606962925      2310.3898877487     -3098.2952362875      -406.5879780673       156.1984012403      -996.9237653943 
   69000       307.5073432903     11477.5625565248         0.7741723332       343.1324082799      -574.4051920278       287.3258386530       312.0687700217         5.6954693759      2309.1977604644     -3098.0795189912      -390.6135115516       320.2083629682      -136.9511553235 
   70000       292.4890779676     11588.7629481363         0.7667437347       285.9867717076      -586.7394657966       270.8103628544       313.7478785052        12.0148395694      2301.8427022504     -3097.8808477437      -387.2744012323       159.0909362810      -750.8175242037 
   71000       297.4704048992     11004.1216024496         0.8074802973       260.5527586532      -627.0367166203       255.5998886281       309.2383448719        10.5822263504      2305.3280550771     -3097.9532307100      -409.8320008378       340.2277038719       496.4671335187 
   72000       297.1338498127     11586.5689985279         0.7668889198       369.4754543701      -517.1098109126       295.9802369503       323.5119923279        17.1041905261      2358.6503101496     -3098.6479870042      -413.7085538623      -195.1299990762     -3341.2912008798 
   73000       309.6650074606     11134.8143655475         0.7980026511       334.0875003644      -589.8881185739       260.3150546115       329.4269973694        11.5535486096      2289.2720850712     -3096.8497976260      -383.6060066096       203.7903461921      -802.3725450017 
   74000       294.0657936171     11042.3071483837         0.8046879392       239.7892498637      -637.6415773842       246.8159044274       312.0557729727         8.0903658451      2326.4151777877     -3097.5714009743      -433.4473974428       124.2912720693      -717.1973362673 
   75000       298.3205784833     11438.8229012328         0.7767942087       315.8186211329      -574.3075943103       268.6929569466       312.3757081507         7.0446355531      2330.8852920137     -3098.5606698899      -394.7455170844        -8.8314286136     -1946.0690608638 
   76000       308.5529537405     11174.8686278167         0.7951423573       386.8699409976      -533.7875422147       273.8556583195       334.8521630720        13.7911486183      2347.6565639342     -3097.8404955083      -406.1025806504        83.8341856006     -1859.4116967225 
   77000       284.2931636455     11337.8201550838         0.7837142645       304.4030122329      -543.8683310272       263.3750514265       330.9306988151        11.2290056684      2341.3703166384     -3096.9262771987      -393.8471263769       321.6023688734       104.0175807810 
   78000       299.3349466063     11591.6768101087         0.7665509942       371.9199560552      -521.2329217222       282.2353954404       321.1914728055        10.0158669482      2350.8360809259     -3097.4868212179      -388.0249166242       622.4786914776      1482.1337442166 
   79000       296.3688015891     11098.1822245297         0.8006366452       303.8538629433      -580.4486584424       265.4750817087       320.3911124371        10.9249149322      2343.7032270849     -3098.4310926633      -422.5119019420       530.4716001594      1400.1228973743 
   80000       289.5064506344     11145.8464373373         0.7972127943       268.4688319844      -595.3578693441       266.6401446675       322.4309816463        13.1571319244      2307.0317306182     -3098.3069933120      -406.3108648884      -339.4011996239     -3739.5710435911 
   81000       302.1022331345     11220.5751868264         0.7919033771       299.9077160756      -601.5021659519       259.2436881927       327.2384781594        14.3985861677      2288.3191830904     -3098.5976292793      -392.1044722828       585.9375715445      1747.9151920136 
   82000       298.2363333805     11171.2746655168         0.7953981662       298.7325891663      -591.1422565093       253.0998327916       333.2726262291         8.7841464825      2317.0121597276     -3098.1175047377      -405.1935170023       780.6376571673      2957.8958250209 
   83000       303.2515710602     11659.9784805192         0.7620607018       319.0988602545      -585.7404057706       253.9543777818       329.9327687478        15.1643303336      2308.9482926893     -3098.5358494409      -395.2043258821       258.8859682284      -354.0917829048 
   84000       309.1401103834     11446.0674797355         0.7763025510       335.9542956620      -586.4551401750       255.8876293836       320.6130444430         3.9254936325      2300.4169848154     -3099.0843507314      -368.2139417182       799.4536641568      2776.6232470195 
   85000       285.4995305438     11274.2422966766         0.7881337965       291.6660606500      -560.2048291351       288.2494256832       320.1784083271         8.0069811817      2317.6017496958     -3097.2341199167      -397.0072741061        77.9828993564     -1299.5920520896 
   86000       300.9158907709     11477.9870065755         0.7741437047       302.3876616341      -595.4824228920       265.5748859809       317.7494889939         7.0186258827      2315.8046328360     -3097.0970793149      -404.5329772707       -10.3879226182     -1868.4919272513 
   87000       297.8625847692     11250.5577020924         0.7897929702       305.7335661005      -583.0260918847       275.5054896260       310.7879629534         5.2148180455      2341.1145565154     -3097.6142914497      -418.0346275753       117.4592994612     -1147.4691646922 
   88000       311.0509853723     11101.6301400764         0.8003879855       358.1950753690      -569.9160117946       280.2716491930       311.4019237603         7.3974340687      2352.6358563929     -3097.8266670999      -423.7962081094      -132.6179007185     -3031.4708206917 
   89000       303.3570129359     11434.7788326307         0.7770689327       367.7051018816      -537.4487806487       290.5013244877       328.8620236027        14.2613878114      2329.7580247318     -3098.8727984439      -401.9587428384       471.1586246886       620.3569119152 
   90000       293.2182995741     11397.6603606002         0.7795995935       312.8494374749      -562.0526447937       282.7404477368       321.0849699252        14.7631951252      2313.7453902872     -3099.5387395232      -394.8479083449       334.6454678099       131.1250911220 
   91000       291.3336800896     11079.9525926569         0.8019539172       286.6312038017      -582.6475680745       278.9711721676       315.9210525427         7.0649219265      2322.4705779886     -3097.8101334423      -409.2651592576       518.3777899366      1434.1664334791 
   92000       303.2470159308     11500.7357240493         0.7726124308       322.7802951357      -582.0453793361       287.0295134970       311.6129937957        13.6990948711      2306.7149656090     -3097.2509834359      -403.8509636730       104.5815714752     -1300.9203059190 
   93000       299.6165245732     11167.1853791217         0.7956894313       307.4614818390      -586.5315657025       246.1433626972       312.6395031699        12.6966306594      2343.1433148677     -3098.7530341148      -402.4013429819       568.9235119309      1605.4212746928 
   94000       298.0592931981     11464.8398224133         0.7750314458       346.0577196381      -543.2888751594       255.0907558263       315.3735324238        10.9097550352      2380.7178117597     -3097.9386675436      -407.4420626607       318.9106800226      -162.3598329509 
   95000       294.9536106526     11023.0578085098         0.8060931493       294.0629957968      -586.0168918072       273.4346248139       314.4735120238        10.0089287753      2325.0863029480     -3098.7528608916      -410.2673994766       449.9996150409       969.9964390797 
   96000       298.5909805811     11632.1543057643         0.7638835550       335.5160284687      -555.4170102826       247.5129245368       325.3947309400        17.7779677438      2340.7614806452     -3098.5505108659      -388.3136032825       244.7123144454      -535.2634243863 
   97000       307.8099153632     11047.1250326695         0.8043369978       299.7939467030      -618.6464653905       247.4577976772       311.5629493943         8.3798600816      2328.0038454531     -3098.5921283796      -415.4587896170        13.9490189943     -1774.2112604695 
   98000       307.6705767885     11053.4572058621         0.8038762188       307.4167409318      -610.6079139961       258.1440362390       304.7432402694         8.1066911430      2319.8354637224     -3098.9937649926      -402.4435803773       226.5619048408      -501.5704908061 
   99000       301.5173282861     11620.4107252094         0.7646555353       359.2809504997      -540.3836977871       254.2017637782       338.1433862299        18.5681104750      2352.9631670548     -3097.6507459027      -406.6093794224       879.4487360098      3069.3476702257 
  100000       296.6812060232     11384.6894645863         0.7804878131       286.3370737976      -598.8975970830       236.1022766874       324.5965203801        10.6900381203      2327.7356051808     -3097.1952558885      -400.8267815631        -2.3326961658     -1738.6182246229 
  101000       305.3946596227     11523.7187150692         0.7710715268       341.6749445133      -569.5588495769       253.9012141365       328.5179710656        15.2199504411      2325.1067516992     -3097.2716247469      -395.0331121723       251.1674482711      -538.5375777030 
  102000       295.4558529701     11728.3152265789         0.7576204435       349.3910564279      -532.1874172127       269.8714344734       341.4491907703        11.1902795032      2324.5623999944     -3094.8334206179      -384.4273013361       468.5514632643       696.6593299784 
  103000       297.8328988586     11442.2421925110         0.7765620788       324.8896885159      -563.7813929207       268.7333072806       304.8222791369        17.1827488073      2335.2977240303     -3098.8999951934      -390.9174569824       521.2256758690      1176.5567651656 
  104000       309.5867812797     11402.9560768364         0.7792375349       361.3775663187      -562.3646420561       248.9503547529       324.6399866994        14.7999958101      2327.4617368986     -3096.8550914960      -381.3616247212       453.3830780505       553.2488302331 
  105000       303.5634298885     11501.4675895922         0.7725632676       273.7149358401      -632.0548517066       239.2684161568       294.8077989400         6.8327236149      2312.2087420578     -3097.1467227331      -388.0258097429       528.1348811677      1516.7779467802 
  106000       302.3356532667     11543.1493154054         0.7697735809       341.8823022398      -560.2240566446       255.0336944915       321.9406864568        16.5978730063      2353.3827982908     -3097.7062142335      -409.4728946566       206.1686089607      -806.1641227779 
  107000       294.1431015789     11653.3564958732         0.7624937405       353.2327840455      -524.4287139922       276.9217404353       317.0601590450        14.8207760698      2351.0070403081     -3097.1177133269      -387.1207165236        86.6438796359     -1568.6106091776 
  108000       296.8436009996     11275.0770935284         0.7880754437       293.3224424206      -592.3967811062       238.9717413548       309.0191264440        11.7471583940      2363.0730396898     -3099.1212758686      -416.0865711203       192.3773528485      -613.8889106101 
  109000       294.3691389415     11798.8984453823         0.7530882162       355.9083504541      -522.4275958004       245.2019135879       346.4258523374        11.0285081920      2363.6267472169     -3097.3195989270      -391.3910182076       665.1401963600      1797.0777220808 
  110000       297.6205096146     11390.8142205603         0.7800681507       323.4953627764      -564.5419935750       255.9671046175       313.3564581828        14.6808644366      2352.9717434576     -3098.6289854325      -402.8891788370       336.3147387656        77.1678192490 
Loop time of 69.4945 on 64 procs for 50000 steps with 1002 atoms

Performance: 62.163 ns/day, 0.386 hours/ns, 719.481 timesteps/s
99.1% CPU use with 64 MPI tasks x no OpenMP threads

MPI task timing breakdown:
Section |  min time  |  avg time  |  max time  |%varavg| %total
---------------------------------------------------------------
Pair    | 6.9343     | 10.603     | 14.998     |  65.4 | 15.26
Bond    | 0.25486    | 0.28804    | 0.32472    |   3.1 |  0.41
Kspace  | 8.4991     | 12.976     | 16.692     |  59.4 | 18.67
Neigh   | 19.493     | 25.321     | 27.05      |  52.0 | 36.44
Comm    | 16.234     | 18.382     | 24.427     |  61.9 | 26.45
Output  | 0.027528   | 0.027593   | 0.027963   |   0.0 |  0.04
Modify  | 1.1402     | 1.3866     | 1.8168     |  19.8 |  2.00
Other   |            | 0.5096     |            |       |  0.73

Nlocal:    15.6562 ave 23 max 6 min
Histogram: 1 0 5 6 11 19 5 6 8 3
Nghost:    4684.48 ave 4808 max 4579 min
Histogram: 1 9 8 9 8 12 7 5 2 3
Neighs:    11812.7 ave 20162 max 5059 min
Histogram: 5 6 9 10 6 12 4 7 3 2

Total # of neighbors = 756013
Ave neighs/atom = 754.504
Ave special neighs/atom = 5
Neighbor list builds = 50000
Dangerous builds not checked
unfix anneal
undump anneal

# RETURN TO LESS FREQUENT NEIGHBOR BUILDS
neigh_modify every 1 delay 10 check yes one 10000 # More relaxed rebuild criteria can be used

#===========================================================
# RUN EQUILIBRIUM SIM
#===========================================================

# UPDATE RUN PARAMETERS AND CREATE FIX
fix equil all npt temp ${FINAL_TEMP} ${FINAL_TEMP} 100.0 iso ${pressure} ${pressure} 1000.0 # NPT, nose-hoover 100 fs T relaxation
fix equil all npt temp 298.0 ${FINAL_TEMP} 100.0 iso ${pressure} ${pressure} 1000.0 
fix equil all npt temp 298.0 298.0 100.0 iso ${pressure} ${pressure} 1000.0 
fix equil all npt temp 298.0 298.0 100.0 iso 1.0 ${pressure} 1000.0 
fix equil all npt temp 298.0 298.0 100.0 iso 1.0 1.0 1000.0 

# CREATE COORDINATE DUMPS FOR EQUILIBRIUM
dump equil all custom ${coords_freq} equil.lammpstrj id type x y z mol
dump equil all custom 1000 equil.lammpstrj id type x y z mol
dump_modify equil sort id format float %20.10g

# RUN EQUIL
run		${nSteps_equil}
run		100000
PPPM initialization ...
WARNING: Using 12-bit tables for long-range coulomb (../kspace.cpp:321)
  G vector (1/distance) = 0.186118
  grid = 8 8 8
  stencil order = 5
  estimated absolute RMS force accuracy = 0.0074359
  estimated relative force accuracy = 2.2393e-05
  using double precision FFTs
  3d grid and FFT values/proc = 343 8
Per MPI rank memory allocation (min/avg/max) = 11.04 | 11.05 | 11.05 Mbytes
Step Temp Volume Density TotEng PotEng E_bond E_angle E_dihed E_coul E_long E_vdwl Enthalpy Press 
  110000       297.6205096146     11390.8142205603         0.7800681507       323.4952378198      -564.5421185315       255.9671046175       313.3564581828        14.6808644366      2350.9336139773     -3096.5909809088      -402.8891788370       336.3141989227        77.1653217893 
  111000       293.0436941213     11420.5276720242         0.7780386020       300.7329263158      -573.6481697985       244.4777413772       326.5683998097         6.7167560505      2346.2536898177     -3096.0778604363      -401.5868964173      -127.2769738792     -2569.7552077710 
  112000       303.7263727562     11408.3699003576         0.7788677490       350.8305063326      -555.4254686534       278.8740819499       316.4539743961        12.0264102847      2325.8090908731     -3094.6097691979      -393.9792569593      -234.3704352442     -3517.2685818308 
  113000       292.2304684069     11416.6394539813         0.7783035822       362.4271747765      -509.5274258842       295.1347294047       325.7792196953         8.8633206773      2351.9962237367     -3095.0798670635      -396.2210523348       -48.8939654596     -2470.3975942888 
  114000       294.3439999714     11068.4783520606         0.8027852701       301.3868780384      -576.8740587867       262.9865270946       322.2920506020        17.7323219982      2328.0500490258     -3096.0595360749      -411.8754714324       432.8467664972       814.3844077738 
  115000       291.7064497874     11537.2029235547         0.7701703301       305.1054919844      -565.2855467088       255.4867024563       322.0372506132         9.2426532965      2351.8296192135     -3096.4374536987      -407.4443185896        25.5695332300     -1661.3504810737 
  116000       290.4322934443     11287.9202634640         0.7871787873       325.1936163815      -541.3956062610       291.6316164494       316.0665545159         7.9951695983      2349.3538150797     -3095.8971698284      -410.5455920757       113.7500743281     -1284.4127352237 
  117000       293.1686165056     10974.2806805421         0.8096759726       296.4424541886      -578.3113841942       261.2117639930       313.6658867771         7.6123470180      2341.4694027708     -3096.2613466953      -406.0094380577       405.3963067145       680.7546839122 
  118000       301.9548162532     11477.7159456546         0.7741619871       356.3617314736      -544.6082894107       291.5771600220       327.4663793424        11.1828988987      2310.9740086630     -3095.2299758693      -390.5787604676       537.5251848515      1082.2789928643 
  119000       298.2872319389     11118.8951467798         0.7991451728       290.6385130390      -599.3882032899       274.2933302689       288.9223441274        16.8496582303      2315.1586976726     -3097.0460956442      -397.5661379449       186.0900113182      -644.7335782004 
  120000       287.1165696667     11305.8156166023         0.7859328053       288.9202275848      -567.7755687555       284.9796079762       300.5633365953        16.3454309449      2342.8326498941     -3095.5481222657      -416.9484719003      -249.0123833439     -3262.4967325688 
  121000       298.5111377723     11438.4442371580         0.7768199241       344.4275413179      -546.2672631901       264.8576824151       342.4728537876        17.8439967686      2319.4631771159     -3095.5256867796      -395.3792864976       377.1017448173       195.8674010985 
  122000       308.4397846567     11095.6115050860         0.8008221430       328.9502052765      -591.3696050578       281.2694616969       282.1374807456        13.6719537880      2334.0808091757     -3096.3204276746      -406.2088827894       760.2373073170      2665.2585108360 
  123000       299.0759488669     11377.4794799046         0.7809824135       326.0759747185      -566.3041079713       260.8841709446       316.5927793617        18.9789293530      2338.4886834075     -3097.1345267869      -404.1141442512       199.7006438016      -761.6235345781 
  124000       288.9755074182     11100.5678276065         0.8004645818       294.3661198784      -567.8763579345       260.4777832518       339.7027997466        21.0656317818      2318.1440477158     -3094.6994559479      -412.5671644826      -163.5495212965     -2828.5534764251 
  125000       298.4661881932     11578.2121627478         0.7674424392       349.6658838533      -540.8948005117       267.4871734310       338.0672648339         9.5734184392      2352.6004620118     -3095.8226320128      -412.8004872149       341.1657683607       -50.3393303257 
  126000       287.6433351136     11495.9610017207         0.7729333270       280.5292894896      -577.7382647767       262.8772968712       312.3282122271        11.3564397874      2320.5387839103     -3094.8878993495      -389.9510982232       610.9114975605      1970.5863953636 
  127000       302.1820358131     11443.5361260312         0.7764742721       312.5442843844      -589.1037121460       262.0643692690       318.4156052918         5.5352502177      2326.6330553131     -3095.2048202251      -406.5471720126       -35.0297878032     -2082.6257690388 
  128000       302.1013644384     11288.8431515634         0.7871144336       323.0289198496      -578.3783701704       250.8630082952       324.0624874815        14.9161012236      2319.9615532559     -3095.1111146019      -393.0704058247       419.5583041043       586.3193234598 
  129000       290.6763601460     11050.9046989100         0.8040618959       312.0334750463      -555.2839915901       260.8429918826       323.7779941724         9.0790654377      2363.1788788309     -3096.9438565518      -415.2190653619       719.3050149301      2527.0296618517 
  130000       291.4581725872     11107.6890080295         0.7999514010       280.1863983059      -589.4638331465       253.2989541142       315.2186406169        15.9241436040      2333.3350333615     -3095.6298697252      -411.6107351178       676.9546143465      2449.2734426226 
  131000       289.5156630516     11469.7404583784         0.7747003008       325.1075670688      -538.7466221860       265.2901223522       327.0852432942        10.8249638897      2351.8843896591     -3095.7998081008      -398.0315332804       454.3846847173       772.8446066494 
  132000       308.1102068061     11358.3134561890         0.7823002436       309.0516955196      -610.2847234364       268.5897761571       301.2888534897         8.1914816196      2329.8847430308     -3096.4370872069      -421.8024905266      -314.7853923194     -3766.0098478817 
  133000       306.8350015863     10900.4635956975         0.8151590348       301.8978809290      -613.6335923475       269.8607645286       286.7811604895        13.6568001529      2324.9698002509     -3096.4312215489      -412.4708962204       430.7116345911       810.2916762451 
  134000       300.1370775148     11439.6610893162         0.7767372927       348.6883899765      -546.8578786742       268.9431240923       314.6855069425        14.4055553229      2347.9312442444     -3095.9666094100      -396.8566998664       698.1175237710      2094.4503226140 
  135000       294.7286190568     11293.8553765007         0.7867651114       307.1816148283      -572.2269449085       266.6387807918       321.7892060067        14.5400825833      2327.8448923505     -3096.1892976747      -406.8506089661       198.0102976256      -662.8121163680 
  136000       296.0565480427     11526.4623200357         0.7708879912       327.0766297898      -556.2941923181       283.5227150386       309.9880683709         6.3304664543      2359.4085467322     -3094.7139350934      -420.8300538208      -289.6445694368     -3668.7401523327 
  137000       313.1399553653     11555.4335296994         0.7689552591       383.4585052798      -550.8856314555       283.5512180473       317.5840607813        13.1059328067      2311.5809033902     -3095.8992176375      -380.8085288434       596.0712319988      1261.6158141085 
  138000       291.1910810273     11369.5164422020         0.7815294018       290.4148651697      -578.4384209277       265.0059615866       315.8050772184        10.9284567123      2333.2416111692     -3097.2777389900      -406.1417886243      -289.9956969695     -3500.3979718454 
  139000       293.1783711882     11161.0129835302         0.7961294729       271.2968628236      -603.4860814921       249.9899632537       301.2676630292        13.7717355873      2354.0152734313     -3097.1581027887      -425.3726140049       -19.4963912175     -1786.5074211198 
  140000       295.8876324501     11213.1525764484         0.7924275821       313.1227258656      -569.7440874408       276.7173267469       316.3234422760         8.4012530866      2314.4526448782     -3096.1051517992      -389.5336026294       454.6302464997       865.3183245574 
  141000       295.5531693372     11486.4322092395         0.7735745288       323.0097854770      -558.8590598501       271.8495263056       309.0367907237         8.7277755625      2352.6229529817     -3096.4954564093      -404.6006490143        46.1618560252     -1652.6475212445 
  142000       305.3482747027     11560.6889126158         0.7686056991       337.0271008759      -574.0682903140       265.5134805940       306.6131784502         5.4084153668      2319.0369284472     -3095.9909393054      -374.6493538667       398.2329949606       363.0225826310 
  143000       298.5962449123     11195.8365323282         0.7936531904       321.4635843183      -569.4851620964       261.6567917201       303.4503186978        16.4570222954      2340.5741394200     -3095.2591406380      -396.3642935916       717.1647283779      2423.4544853801 
  144000       295.2134472256     11577.2367607627         0.7675070975       354.0215354035      -526.8336501920       298.9659535305       311.9276221695        11.6175002733      2334.7084545275     -3096.3566839545      -387.6964967384       444.7553884333       537.3887238951 
  145000       311.2279470295     11235.2256074616         0.7908707572       329.9740342143      -598.6650695244       256.8817561823       305.2789736591        12.7537941012      2331.7728245549     -3096.0959860734      -409.2564319486       183.6257768409      -893.1612409672 
  146000       304.8686093369     11548.6889837858         0.7694043364       395.0575794707      -514.6065905851       274.4006347046       339.4799008790        10.2692272335      2362.0662971695     -3096.6119564956      -404.2106940761       425.8755607823       182.9766248794 
  147000       295.4688991205     11471.4564159805         0.7745844173       316.6167213906      -565.0006792341       257.7195164218       300.5521737516        12.4958101650      2365.9729061184     -3096.6311411658      -405.1099445250        97.6441962707     -1308.8659740805 
  148000       304.2271619756     11098.5825686154         0.8006077649       294.9880786145      -612.7621466673       239.1493791315       309.0944443715        14.5980142967      2340.0809351644     -3095.3168248625      -420.3680947689       293.6479173508        -8.2796819437 
  149000       307.2993652264     11273.8831958386         0.7881589005       346.6206803362      -570.2963569255       286.1965218019       330.5417009135        10.2623001098      2305.3115664128     -3097.1615159239      -405.4469302397       502.7229226521       949.4229404026 
  150000       309.5684476903     11727.2021863729         0.7576923500       349.2572697485      -574.4302350296       257.3817752528       319.1601874985         5.4587634538      2339.3455095055     -3097.2051976814      -398.5712730587        70.0081461885     -1632.7568578034 
  151000       290.5445028396     11369.3640165716         0.7815398795       315.4547519374      -551.4692800732       253.3871360622       331.1459639773        15.2358890201      2326.0057408827     -3094.8038915817      -382.4401184337       532.0000168891      1305.9803144531 
  152000       295.4636499004     11515.7197767180         0.7716071210       300.6954995494      -580.9062385004       250.4603551669       313.6413286624        11.3755489734      2349.0311855520     -3094.9423210389      -410.4723358162       434.6726990887       797.7446826307 
  153000       294.0090220820     11598.2160015725         0.7661188050       311.8665107795      -565.3949220810       258.2302698239       326.6281836589         6.2063522988      2339.6189523271     -3096.4670965422      -399.6115836475        87.9796102837     -1323.6147614585 
  154000       309.7772442220     11230.3858725787         0.7912115830       367.2499051938      -557.0606047672       246.5696206306       343.7771405393        22.1005973709      2355.5212651886     -3095.8287984287      -429.2004300678       343.2454646518      -146.5618777131 
  155000       308.1088739196     11389.2357371154         0.7801762637       339.5516873240      -579.7807545776       283.2170160115       285.4129084927         6.3947338371      2330.8472886741     -3095.9374869179      -389.7152146751       432.2519903234       558.0982774789 
  156000       296.8849516154     11430.3589796444         0.7773694072       337.1396552059      -548.7029499106       275.8269978114       327.6271675866         6.8444650992      2328.4991093031     -3095.1142530120      -392.3864366991       575.8358293858      1431.8901409159 
  157000       291.2914142006     11643.4326884403         0.7631436211       322.6491046980      -546.5035546047       274.1786184671       329.9901094660         5.8602192501      2330.8821112353     -3097.2356061018      -390.1790069215       -12.4685756670     -1973.5149243330 
  158000       299.3743001568     11008.5238555664         0.8071573901       298.0689227852      -595.2013777564       275.7792122416       308.2886987718         4.8121444468      2341.9902276084     -3096.6544694382      -429.4171913867      1077.1904547344      4852.8875659486 
  159000       290.4835257514     11260.5724291583         0.7890905582       316.3912063851      -550.3508827470       304.0889906659       306.5442162106        10.4489126147      2340.9063629809     -3096.4951661279      -415.8441990912      -106.6469689210     -2575.9842448257 
  160000       299.0175578437     11447.7029605196         0.7761916442       338.2324159310      -553.9734401575       281.7499402142       319.1564921472        13.3053957094      2316.4547313580     -3096.5828322881      -388.0571672983       -48.7996757958     -2318.2097906769 
  161000       307.2347018399     11385.8415853873         0.7804088364       357.1726410116      -559.5514542283       297.4180334498       300.5744890015         8.5934695067      2310.4423732633     -3096.1787634813      -380.4010559683       278.2016202057      -475.5834416794 
  162000       310.6677455018     11560.9160790300         0.7685905964       313.5663701057      -613.4012094348       263.1115224920       295.3441015089         5.3465269606      2321.7609182813     -3095.9511547801      -403.0131238975       632.6369560586      1892.4248046051 
  163000       312.4537419650     11466.6610030535         0.7749083522       374.5837749110      -557.7128445527       265.8213416627       311.2642568462         4.2864049051      2357.0764989733     -3097.0583768387      -399.1029701013       772.6849963317      2380.5683062497 
  164000       296.3636411374     11568.2495874239         0.7681033605       297.0381643018      -587.2489593752       269.2712556694       295.8494623018         9.4029648956      2335.3385354666     -3095.9186266552      -401.1925510534       193.4380718593      -614.0681940642 
  165000       295.1415332947     11360.8529474380         0.7821253760       300.9159046233      -579.7247048425       259.0384861923       317.4704132570        10.5234018835      2323.8064355974     -3096.7448143744      -393.8186273983       -33.8336992138     -2020.3808519646 
  166000       310.3773277420     11469.5336613026         0.7747142688       373.1655877972      -552.9354458860       282.1819179216       308.6385681866        10.6268796350      2334.3906650427     -3097.4927775345      -391.2806991375       285.9474872293      -521.4167456021 
  167000       285.8245246101     11494.8679745580         0.7730068238       283.0151610507      -569.8254430589       266.1061023998       310.0369424714        10.4009511534      2332.5620708759     -3094.9185728186      -394.0129371408       -64.9857577262     -2075.8717257033 
  168000       294.5661028007     11391.4004360760         0.7800280074       312.6643788192      -566.2592663981       263.1851869957       306.0447066304         8.2125084088      2340.3584768543     -3096.2555442333      -387.8046010539       798.6882605652      2925.5303077510 
  169000       305.0062549155     11832.5852751076         0.7509442085       346.3603226288      -563.7145530461       251.7994157312       299.6281323852        12.3335671525      2358.6248098823     -3095.0647639896      -391.0357142077       273.3661046122      -422.9927540937 
  170000       312.2965105284     11899.5793355627         0.7467164286       380.8179552261      -551.0095185141       272.8408088873       294.6955467980        10.0285886541      2343.6863702614     -3096.4687981753      -375.7920349396       282.9209682293      -564.1074396286 
  171000       297.3064133118     11819.7279438047         0.7517610749       333.0902785379      -554.0098801361       264.0374759861       303.7925213748        13.7845503765      2332.6037174515     -3095.2018572567      -373.0262880683       329.0628947582       -23.3635937882 
  172000       276.4101721459     11422.2648523456         0.7779202722       257.7319887516      -567.0181565221       243.7724844563       320.1888538968         9.7472228280      2359.2487062432     -3096.1938438269      -403.7815801194       398.2372536095       843.4599823245 
  173000       293.6629518026     11913.8854599889         0.7458197759       389.8140025846      -486.4148289395       270.7321110582       338.4788687418        12.9034874012      2346.3131549071     -3095.2249327909      -359.6175182570       126.4472224720     -1515.7643353730 
  174000       303.5128857752     11447.3435819634         0.7762160120       352.0506288262      -553.5683456573       246.9350450544       335.1230977742        20.0331079167      2327.5159425358     -3095.7357573146      -387.4397816238       499.0764914577       880.6698508230 
  175000       281.5730315881     11461.5018998849         0.7752571575       262.3920327271      -577.7630053621       262.0077983366       296.1120196508        12.6560274638      2350.6881487685     -3096.3549705483      -402.8720290335       455.2998074971      1154.0704239894 
  176000       292.1073771869     11831.9854082944         0.7509822804       345.6466473499      -525.9406748536       246.6673035033       325.4554014373        13.5952748105      2370.4962006278     -3096.4665949473      -385.6882602853       274.9923371519      -409.4540261856 
  177000       298.7480062999     11233.3968993762         0.7909995047       333.2037560497      -558.1978146061       272.8808145737       291.1169094057        18.2185539792      2337.4979588988     -3096.1803210130      -381.7317304506       761.2944935993      2613.0567283336 
  178000       295.5860738391     11575.3766987325         0.7676304292       273.1304362786      -608.8365892005       244.8376351266       305.1138508946         5.8524969932      2324.2050766744     -3096.2167722571      -392.6288766321       746.6110663928      2804.7308683865 
  179000       300.2595778491     11446.7849311362         0.7762538946       346.1649826065      -549.7468014220       270.9238173325       325.9879116699        13.0494982986      2328.3947526551     -3094.7763649382      -393.3264164400        21.1441967797     -1946.9362148653 
  180000       295.3448927720     11562.9255471024         0.7684570265       314.8065213925      -566.4408702230       273.9941701766       298.9639746241         8.7550501354      2343.1583948075     -3096.2866535219      -395.0258064448       -15.2729203988     -1957.3786975902 
  181000       299.7816926349     11236.2338585759         0.7907997907       309.8648201539      -584.6210543404       281.1917999493       292.1433574504         8.6941071172      2341.7568096307     -3096.3132716960      -412.0938567919       169.0759942405      -859.1550126226 
  182000       299.5231859568     11450.7855272085         0.7759826924       335.0420837061      -558.6724609250       252.2980593594       311.3218319308         9.0619218041      2368.8101424258     -3096.4752113004      -403.6892051446       478.9364597570       861.6534882940 
  183000       301.8463336057     11472.5304178039         0.7745119045       339.9602986428      -560.6860327096       266.0787165387       311.1625422979        11.1175497778      2336.1133632297     -3097.0138596349      -388.1443449189       706.1267852505      2188.4845538387 
  184000       299.2036129322     11318.8572062302         0.7850272533       291.0133508465      -601.7476547144       247.9023805033       303.9969454310        15.1774022507      2324.2554492754     -3095.7477942701      -397.3320379047       697.4325919306      2462.0438864888 
  185000       299.7172250259     11651.1492133011         0.7626381931       402.3113230283      -491.9821936036       284.1579849955       324.1824565186        13.8838867574      2357.8032094727     -3095.6213772891      -376.3883540588       392.7672984670       -56.1677328915 
  186000       300.4268518081     11095.4329116802         0.8008350331       295.0404538500      -601.3704406885       247.2119474981       327.9495345351        10.3919225367      2320.2153638776     -3096.4398292565      -410.6993798794       437.5905670148       880.9422215056 
  187000       285.7648631180     11567.5728399404         0.7681482975       285.6819092495      -566.9806774453       247.0220367199       327.1410477862         7.1736994156      2340.9280008029     -3096.5082217082      -392.7372404616        69.6744372869     -1280.4146717362 
  188000       294.6503838126     11681.1793969503         0.7606775893       383.6308606446      -495.5442614857       277.5384038013       335.8442899398        12.2368401681      2361.4112267394     -3096.7531775068      -385.8218446274       752.2278410857      2163.6608653775 
  189000       295.2047697671     11512.4620810812         0.7718254637       339.4863461476      -541.3429477267       273.3679425394       312.3374841474        22.4866275104      2343.1513036112     -3096.8345933301      -395.8517122049       291.6178084999      -285.1058037594 
  190000       304.8355934013     11630.5395194010         0.7639896128       341.7541504086      -567.8115070001       265.9950674473       307.3933975671        13.5388549644      2331.0646222647     -3096.0706263611      -389.7328228824       154.8848968451     -1101.6968308058 
  191000       297.7081399527     11075.3501955027         0.8022871717       319.5564144889      -568.7424124643       268.2358609006       315.9614934197        19.1703182917      2337.0324992344     -3096.9261840067      -412.2164003039       675.7195586353      2205.0356733145 
  192000       296.6291350952     11387.6549163833         0.7802845668       323.1026214307      -561.9766806908       251.7691934662       337.8221861676        13.6110410733      2338.7021917631     -3096.8644658390      -407.0168273221       421.9808153397       595.3746477380 
  193000       306.9838278474     11245.8172050608         0.7901258949       297.6829786984      -618.2925610159       253.5848136535       302.7195217633        13.6861564129      2333.2940823847     -3095.7440380997      -425.8330971305         0.0624518544     -1814.6629475693 
  194000       303.5593808405     11433.9041782630         0.7771283758       358.4113671166      -547.3463389178       271.5984572473       309.7110226126        12.5921635934      2340.5050110734     -3096.6165544203      -385.1364390241       213.2980646073      -870.2354850406 
  195000       293.7701633344     11574.8093737568         0.7676680537       291.5637047797      -584.9850235330       251.4762165041       322.2697203312         7.8569269363      2329.6528397894     -3097.7140885259      -398.5266385680       446.7551242077       919.3438360988 
  196000       292.9574041611     11443.8346564861         0.7764540165       323.5994442545      -550.5241806655       286.1138139431       310.2751649613        13.1578674857      2323.2782505428     -3096.7829201634      -386.5663574350       830.3404892764      3036.2576282855 
  197000       301.4328975637     11612.5017017619         0.7651763256       359.6527732815      -539.7599513874       263.9439265037       353.8666834858         5.9275611320      2332.0034850352     -3095.9792650507      -399.5223424933       -12.9383259473     -2200.0411085707 
  198000       295.7275530026     11841.8767377845         0.7503549970       320.4177179544      -561.9714517596       241.9647708158       333.7936926352         6.4927255584      2343.2926161390     -3096.7332041897      -390.7820527182       331.0273946329        61.4335657779 
  199000       311.9466499182     11497.3771850979         0.7728381213       359.5462681618      -571.2372946873       265.0223458517       324.3706516024        10.0899362426      2309.5751440182     -3095.5507712666      -384.7446011356       129.9329857328     -1369.3748222430 
  200000       294.9718761863     11408.1649520296         0.7788817414       276.4970501684      -603.6373379680       264.6616557897       310.3772430152         5.1058967496      2316.1509396793     -3096.9171871142      -403.0158860876       163.2639819697      -680.5837787775 
  201000       315.2213002018     11432.1672089097         0.7772464504       354.1027692015      -586.4516652338       269.1640712593       307.1961622145         9.6153981927      2302.6985305607     -3095.2085830540      -379.9172444069       265.3054670329      -532.5928281763 
  202000       301.7233787283     11216.2307560226         0.7922101084       313.9856779061      -586.2937818067       272.0132052459       309.0669514665         6.8534965634      2307.5871723480     -3096.2268857876      -385.5877216429       657.4307100515      2099.5896042165 
  203000       294.8047563499     11508.2230367391         0.7721097649       321.9598981101      -557.6758393860       281.1917115020       317.6507540275         7.1889743232      2336.9203243477     -3095.6263853693      -405.0012182171      -598.3029803971     -5483.1199187864 
  204000       302.4493537425     11247.0427822150         0.7900397959       355.4842077285      -546.9614095963       267.6326251616       324.5500718015        10.1280246669      2331.5522966280     -3096.2354123510      -384.5890155032       755.9280053948      2441.3347609897 
  205000       301.8159955936     11404.9234471124         0.7791031150       357.1318087669      -543.4240003022       276.7805030377       338.1222933809         7.3054203085      2310.0841306448     -3096.5326321212      -379.1837155528       251.3045162166      -636.2523823648 
  206000       304.4009422460     11514.1731520310         0.7717107661       305.8060283055      -602.4627209587       252.7001555521       324.5047908008         7.4834158858      2309.0458388024     -3095.3111184271      -400.8858035727       -31.4585830680     -2008.4551041680 
  207000       301.6456981992     10956.6872096771         0.8109760928       268.7711265488      -631.2765507114       276.5958607189       287.2180705145        -1.8114489058      2314.8106268889     -3096.8461697398      -411.2434901882        67.0413032751     -1262.4522335443 
  208000       287.2015797884     11531.5307288512         0.7705491658       301.2517923178      -555.6976564467       294.2717539077       326.5519096993         9.3815132323      2289.5136405676     -3095.7283156770      -379.6881581767       359.9197891516       348.8497449914 
  209000       290.9917480529     11366.8170187200         0.7817150016       272.1628657711      -596.0956524190       247.5049790020       314.9466946808        12.6374725117      2312.7874418013     -3094.6330873610      -389.3391530539       364.4098854280       556.4646563703 
  210000       297.1821229173     11162.3896896104         0.7960312828       336.8081203248      -549.9211818061       286.4593223883       324.6036840121        16.9133271590      2297.0089900980     -3095.4731347207      -379.4333707429       571.4326529539      1441.2534206240 
Loop time of 67.1294 on 64 procs for 100000 steps with 1002 atoms

Performance: 128.707 ns/day, 0.186 hours/ns, 1489.661 timesteps/s
99.2% CPU use with 64 MPI tasks x no OpenMP threads

MPI task timing breakdown:
Section |  min time  |  avg time  |  max time  |%varavg| %total
---------------------------------------------------------------
Pair    | 12.197     | 18.823     | 26.935     |  97.8 | 28.04
Bond    | 0.48004    | 0.52864    | 0.58934    |   4.0 |  0.79
Kspace  | 15.48      | 25.334     | 32.876     |  88.0 | 37.74
Neigh   | 1.4799     | 1.9146     | 2.0389     |  13.8 |  2.85
Comm    | 15.3       | 17.154     | 21.154     |  41.7 | 25.55
Output  | 0.04875    | 0.048796   | 0.049306   |   0.0 |  0.07
Modify  | 2.0832     | 2.5688     | 3.3842     |  26.9 |  3.83
Other   |            | 0.7576     |            |       |  1.13

Nlocal:    15.6562 ave 24 max 7 min
Histogram: 1 0 3 11 19 17 3 6 3 1
Nghost:    4749.41 ave 4861 max 4639 min
Histogram: 5 5 5 8 8 8 6 10 6 3
Neighs:    12039 ave 22437 max 3572 min
Histogram: 1 0 15 16 6 11 10 4 0 1

Total # of neighbors = 770497
Ave neighs/atom = 768.959
Ave special neighs/atom = 5
Neighbor list builds = 3828
Dangerous builds = 0
unfix equil
undump equil

# WRITE RESTART FILES, CLEANUP, AND EXIT
write_restart   md-18.end.restart
PPPM initialization ...
WARNING: Using 12-bit tables for long-range coulomb (../kspace.cpp:321)
  G vector (1/distance) = 0.186532
  grid = 8 8 8
  stencil order = 5
  estimated absolute RMS force accuracy = 0.00728782
  estimated relative force accuracy = 2.19471e-05
  using double precision FFTs
  3d grid and FFT values/proc = 343 8
write_data      md-18.end.data pair ii
PPPM initialization ...
WARNING: Using 12-bit tables for long-range coulomb (../kspace.cpp:321)
  G vector (1/distance) = 0.186532
  grid = 8 8 8
  stencil order = 5
  estimated absolute RMS force accuracy = 0.00728782
  estimated relative force accuracy = 2.19471e-05
  using double precision FFTs
  3d grid and FFT values/proc = 343 8
unfix		averages
Total wall time: 0:03:49
