
#===========================================================
# GENERAL PROCEDURES
#===========================================================
units		real	# g/mol, angstroms, fs, kcal/mol, K, atm, charge*angstrom
dimension	3	# 3 dimensional simulation
newton		on	# use Newton's 3rd law
boundary	p p p	# periodic boundary conditions
atom_style	full    # molecular + charge

#===========================================================
# FORCE FIELD DEFINITION
#===========================================================
special_bonds  lj   0.0 0.0 0.0  coul 0.0 0.0 0.0     # NO     1-4 LJ/COUL interactions
pair_style     hybrid lj/cut/coul/long 14.0 14.0 # outer_LJ outer_Coul (cutoff values, see LAMMPS Doc)
kspace_style   pppm 0.0001          # long-range electrostatics sum method
bond_style     harmonic             # parameters needed: k_bond, r0
angle_style    harmonic             # parameters needed: k_theta, theta0
dihedral_style hybrid opls            # parameters needed: V1, V2, V3, V4
pair_modify    shift yes mix arithmetic       # using Lorenz-Berthelot mixing rules

#===========================================================
# SETUP SIMULATIONS
#===========================================================

# READ IN COEFFICIENTS/COORDINATES/TOPOLOGY
read_data ${data_name}
read_data md-16.data
  orthogonal box = (-11.1914 -11.1914 -11.1914) to (11.1914 11.1914 11.1914)
  4 by 4 by 4 MPI processor grid
  reading atoms ...
  1002 atoms
  reading velocities ...
  1002 velocities
  scanning bonds ...
  1 = max bonds/atom
  scanning angles ...
  6 = max angles/atom
  scanning dihedrals ...
  3 = max dihedrals/atom
  reading bonds ...
  835 bonds
  reading angles ...
  1169 angles
  reading dihedrals ...
  501 dihedrals
  4 = max # of 1-2 neighbors
  3 = max # of 1-3 neighbors
  4 = max # of 1-4 neighbors
  5 = max # of special neighbors
include ${settings_name}
include md-16.in.settings
     # Non-bonded interactions (pair-wise)
     pair_coeff           1          1          lj/cut/coul/long     0.008689             2.472252
     pair_coeff           1          2          lj/cut/coul/long     0.001927             2.250630
     pair_coeff           1          3          lj/cut/coul/long     0.027329             3.139994
     pair_coeff           1          4          lj/cut/coul/long     0.037668             2.729175
     pair_coeff           2          2          lj/cut/coul/long     0.001000             1.778089
     pair_coeff           2          3          lj/cut/coul/long     0.003844             3.083835
     pair_coeff           2          4          lj/cut/coul/long     0.006239             2.608279
     pair_coeff           3          3          lj/cut/coul/long     0.204805             3.450807
     pair_coeff           3          4          lj/cut/coul/long     0.179741             3.233680
     pair_coeff           4          4          lj/cut/coul/long     0.204174             2.902679

     # Stretching interactions
     bond_coeff           1           366.904251           1.096103
     bond_coeff           2           612.219900           0.957501
     bond_coeff           3           368.709924           1.411527

     # Bending interactions
     angle_coeff          1           40.926667            108.205025
     angle_coeff          2           61.328715            112.232133
     angle_coeff          3           49.873049            108.741688

     # Dihedral interactions
     dihedral_coeff       1          opls                  0.105414            -0.205941             0.372587            -0.070860

# SET RUN PARAMETERS
timestep	1.0		# fs
run_style	verlet 		# Velocity-Verlet integrator
neigh_modify every 1 delay 0 check no one 10000 # More relaxed rebuild criteria can be used

#===========================================================
# RUN CONSTRAINED RELAXATION
#===========================================================

# SET OUTPUTS
thermo_style    custom step temp vol density etotal pe ebond eangle edihed ecoul elong evdwl enthalpy press
thermo_modify   format float %20.10f
thermo ${thermo_freq}
thermo 1000

# DECLARE RELEVANT OUTPUT VARIABLES
variable        my_step equal   step
variable        my_temp equal   temp
variable        my_rho  equal   density
variable        my_pe   equal   pe
variable        my_ebon equal   ebond
variable        my_eang equal   eangle
variable        my_edih equal   edihed
variable        my_evdw equal   evdwl
variable        my_eel  equal   (ecoul+elong)
variable        my_ent  equal   enthalpy
variable        my_P    equal   press
variable        my_vol  equal   vol

fix  averages all ave/time ${dump4avg} $(v_avg_freq/v_dump4avg) ${avg_freq} v_my_temp v_my_rho v_my_vol v_my_pe v_my_edih v_my_evdw v_my_eel v_my_ent v_my_P file thermo.avg
fix  averages all ave/time 100 $(v_avg_freq/v_dump4avg) ${avg_freq} v_my_temp v_my_rho v_my_vol v_my_pe v_my_edih v_my_evdw v_my_eel v_my_ent v_my_P file thermo.avg
fix  averages all ave/time 100 10 ${avg_freq} v_my_temp v_my_rho v_my_vol v_my_pe v_my_edih v_my_evdw v_my_eel v_my_ent v_my_P file thermo.avg
fix  averages all ave/time 100 10 1000 v_my_temp v_my_rho v_my_vol v_my_pe v_my_edih v_my_evdw v_my_eel v_my_ent v_my_P file thermo.avg

# INITIALIZE VELOCITIES AND CREATE THE CONSTRAINED RELAXATION FIX
velocity        all create ${ANNEAL_TEMP} ${vseed} mom yes rot yes     # DRAW VELOCITIES
velocity        all create 100.0 ${vseed} mom yes rot yes     
velocity        all create 100.0 1113 mom yes rot yes     

fix relax all nve/limit 0.01
run             10000
PPPM initialization ...
WARNING: Using 12-bit tables for long-range coulomb (../kspace.cpp:321)
  G vector (1/distance) = 0.186439
  grid = 8 8 8
  stencil order = 5
  estimated absolute RMS force accuracy = 0.00732095
  estimated relative force accuracy = 2.20468e-05
  using double precision FFTs
  3d grid and FFT values/proc = 343 8
Neighbor list info ...
  update every 1 steps, delay 0 steps, check no
  max neighbors/atom: 10000, page size: 100000
  master list distance cutoff = 16
  ghost atom cutoff = 16
  binsize = 8, bins = 3 3 3
  1 neighbor lists, perpetual/occasional/extra = 1 0 0
  (1) pair lj/cut/coul/long, perpetual
      attributes: half, newton on
      pair build: half/bin/newton
      stencil: half/bin/3d/newton
      bin: standard
Per MPI rank memory allocation (min/avg/max) = 8.559 | 8.682 | 9.161 Mbytes
Step Temp Volume Density TotEng PotEng E_bond E_angle E_dihed E_coul E_long E_vdwl Enthalpy Press 
       0       100.0000000000     11213.4705672795         0.7924051105      -312.1281125514      -610.5071985564       246.5252355953       317.6874546746        21.1648592587      2329.4368365962     -3100.7213104581      -424.6002742231      -432.8703329324      -738.3175998398 
    1000        23.7874486878     11213.4705672795         0.7924051105     -1395.5646271771     -1466.5413991556         9.3394424470        17.8783718038       -36.2752449591      2079.1939391898     -3103.1862381919      -433.4916694452     -1816.6369247431     -2574.7835936498 
    2000        19.3926970224     11213.4705672795         0.7924051105     -1439.0754894063     -1496.9392415335         8.8211604735        16.8380005924       -35.6737766056      2043.6942753466     -3103.4698889183      -427.1490124221     -1767.9963054788     -2011.2933710649 
    3000        17.0485653008     11213.4705672795         0.7924051105     -1460.5973880582     -1511.4667413797         8.7209621592        16.7718059081       -38.2607347153      2041.9109621832     -3103.7069030362      -436.9028338787     -1881.3252864482     -2572.6776528097 
    4000        15.5615378600     11213.4705672795         0.7924051105     -1475.5845997630     -1522.0169741981         8.9842988703        16.5183452440       -37.0941715145      2040.3374524859     -3103.9297977668      -446.8331015169     -1902.8521854132     -2612.6666987821 
    5000        15.2564873128     11213.4705672795         0.7924051105     -1488.3183857638     -1533.8405531643         8.3643653078        17.2691465362       -37.8183656631      2026.8350121847     -3104.1820761417      -444.3086353881     -1835.0944450427     -2120.4750663085 
    6000        14.0238952634     11213.4705672795         0.7924051105     -1498.4159438243     -1540.2603143335         8.3013782157        16.7581141319       -37.7387516826      2031.5874953097     -3103.5805551306      -455.5879951776     -1863.6145673606     -2233.1258307426 
    7000        13.8424140899     11213.4705672795         0.7924051105     -1507.1674216801     -1548.4702903224         8.4253567069        16.5475567193       -37.3344573620      2027.3027155707     -3103.9204745950      -459.4909873622     -1873.1887147387     -2238.1563112598 
    8000        12.8128712044     11213.4705672795         0.7924051105     -1516.2513253203     -1554.4822533109         8.1189081411        16.4817460594       -37.3845839819      2024.8269248570     -3103.3118899471      -463.2133584395     -1850.1500309867     -2041.7322969486 
    9000        11.2953214743     11213.4705672795         0.7924051105     -1520.9645003594     -1554.6673773358         8.1217426506        16.7039386515       -37.0174421242      2028.0473937532     -3103.3582759862      -467.1647342808     -1874.5498127811     -2162.1124605957 
   10000        11.4419629723     11213.4705672795         0.7924051105     -1524.2192287032     -1558.3596532408         8.2465199019        17.2900806508       -37.9540046821      2024.9233255290     -3104.1924105194      -466.6731641209     -1905.5563598303     -2331.8099873852 
Loop time of 11.4804 on 64 procs for 10000 steps with 1002 atoms

Performance: 75.259 ns/day, 0.319 hours/ns, 871.053 timesteps/s
99.0% CPU use with 64 MPI tasks x no OpenMP threads

MPI task timing breakdown:
Section |  min time  |  avg time  |  max time  |%varavg| %total
---------------------------------------------------------------
Pair    | 0.26967    | 1.7844     | 3.1765     |  45.3 | 15.54
Bond    | 0.0087228  | 0.044401   | 0.069061   |   5.7 |  0.39
Kspace  | 0.96272    | 2.3484     | 3.8761     |  39.4 | 20.46
Neigh   | 3.9212     | 4.0107     | 4.0971     |   2.2 | 34.93
Comm    | 3.0906     | 3.1862     | 3.2785     |   2.6 | 27.75
Output  | 0.0017266  | 0.0020428  | 0.0020578  |   0.1 |  0.02
Modify  | 0.0074606  | 0.0092857  | 0.010224   |   0.5 |  0.08
Other   |            | 0.09501    |            |       |  0.83

Nlocal:    15.6562 ave 23 max 0 min
Histogram: 2 0 1 3 6 5 15 16 8 8
Nghost:    4744.73 ave 5024 max 4465 min
Histogram: 4 2 13 7 5 6 9 7 7 4
Neighs:    11973.7 ave 19782 max 0 min
Histogram: 2 1 4 3 7 10 16 8 9 4

Total # of neighbors = 766318
Ave neighs/atom = 764.788
Ave special neighs/atom = 5
Neighbor list builds = 10000
Dangerous builds not checked
unfix relax

#===========================================================
# RUN RAMPED ANNEAL
#===========================================================

# REINITIALIZE THE VELOCITIES AND CREATE THE ANNEALING FIX
velocity        all create ${ANNEAL_TEMP} ${vseed} mom yes rot yes     # DRAW VELOCITIES
velocity        all create 100.0 ${vseed} mom yes rot yes     
velocity        all create 100.0 1113 mom yes rot yes     

fix mom all momentum 1000 linear 1 1 1 angular # Zero out system linear and angular momentum every ps
fix anneal all npt temp ${ANNEAL_TEMP} ${FINAL_TEMP} 100.0 iso ${pressure} ${pressure} 1000.0 # NPT, nose-hoover 100 fs T relaxation
fix anneal all npt temp 100.0 ${FINAL_TEMP} 100.0 iso ${pressure} ${pressure} 1000.0 
fix anneal all npt temp 100.0 298.0 100.0 iso ${pressure} ${pressure} 1000.0 
fix anneal all npt temp 100.0 298.0 100.0 iso 1.0 ${pressure} 1000.0 
fix anneal all npt temp 100.0 298.0 100.0 iso 1.0 1.0 1000.0 

# CREATE COORDINATE DUMPS FOR ANNEAL
dump anneal all custom ${coords_freq} anneal.lammpstrj id type x y z mol
dump anneal all custom 1000 anneal.lammpstrj id type x y z mol
dump_modify anneal sort id format float %20.10g

# RUN RAMPED ANNEAL
run ${nSteps_ramp}
run 50000
PPPM initialization ...
WARNING: Using 12-bit tables for long-range coulomb (../kspace.cpp:321)
  G vector (1/distance) = 0.186439
  grid = 8 8 8
  stencil order = 5
  estimated absolute RMS force accuracy = 0.00732095
  estimated relative force accuracy = 2.20468e-05
  using double precision FFTs
  3d grid and FFT values/proc = 343 8
Per MPI rank memory allocation (min/avg/max) = 9.831 | 10.36 | 10.54 Mbytes
Step Temp Volume Density TotEng PotEng E_bond E_angle E_dihed E_coul E_long E_vdwl Enthalpy Press 
   10000       100.0000000000     11213.4705672795         0.7924051105     -1259.9805672358     -1558.3596532408         8.2465199019        17.2900806508       -37.9540046821      2024.9233255290     -3104.1924105194      -466.6731641209     -1465.1585907180     -1254.6277959707 
   11000        91.6767266135     10198.8885114626         0.8712333088     -1004.6858313874     -1278.2300103360       113.8920226881        98.0372224932       -22.5514130031      2100.1450574712     -3103.9666092018      -463.7862907836     -1622.3160080162     -4152.4056489105 
   12000       114.7389591612      9686.6620526501         0.9173037456      -960.5454341971     -1302.9024918338        92.6850474042       111.1709465787       -17.5843394837      2092.7739947058     -3103.5815753280      -478.3665657108     -1097.1023990636      -966.6378972668 
   13000       114.0891723605      9493.9198228255         0.9359265245      -950.0861895874     -1290.5044193072        89.5234453099       114.7031621128       -11.7286363968      2119.4865432869     -3103.8302607908      -498.6586728294      -925.4876545159       177.6592379806 
   14000       115.7303640664      9644.6073648300         0.9213035894      -951.7558621158     -1297.0710646475        94.1917841864       117.1015209766       -17.4859660285      2109.4294629626     -3103.4938022382      -496.8140645064      -906.5780164941       321.1922632217 
   15000       120.5629530173      9540.9576974997         0.9313123132      -933.3351464078     -1293.0697836816        89.0829240095       119.5965934947       -14.5472242285      2133.0092660601     -3103.2869944184      -516.9243485990     -1015.7834261033      -592.5346319975 
   16000       122.5774413671      9639.9956405971         0.9217443363      -892.5528154160     -1258.2982646156        95.9326136641       129.4222109503       -13.6079906831      2120.8468543497     -3104.3155393100      -486.5764135866      -620.2400112558      1936.9362872777 
   17000       130.8581180732      9523.2855736326         0.9330405263      -868.9233525495     -1259.3766092197        98.7693072021       122.9058606695        -5.0221291329      2129.9050815463     -3103.8151681532      -502.1195613516      -851.8116346436       123.2057324825 
   18000       132.9441430240      9614.0146355661         0.9242352670      -853.3403823705     -1250.0179012226        95.4439704618       128.4303793252        -2.1164133199      2137.7558012822     -3104.1169587914      -505.4146801805      -959.9507039500      -760.3588147560 
   19000       138.8209060722      9587.8080581121         0.9267615006      -815.2699258657     -1229.4824765877       111.5742263979       134.6203237391        -7.3650806409      2131.4085218434     -3103.3398681334      -496.3805997938      -824.3585988234       -64.9987875631 
   20000       135.1876387557      9534.0584090130         0.9319862542      -827.8145088336     -1231.1861497446       102.9022148295       140.8720445230        -5.9631697420      2120.9502169552     -3103.7520065273      -486.1954497831      -895.0377563168      -483.4658372468 
   21000       144.8802946349      9537.4362819962         0.9316561727      -773.4395800290     -1205.7320789619       114.4202376794       151.1043778369        -7.9929924321      2160.8706776581     -3103.7429249470      -520.3914547572      -644.6048984522       926.2436625055 
   22000       146.7931541480      9649.1343249266         0.9208713533      -744.7639222117     -1182.7639938764       128.8407080727       147.9412470348        -9.0422100156      2157.1627864890     -3103.9358169091      -503.7307085482      -766.3666501920      -153.5127160019 
   23000       153.3963922857      9625.1119702479         0.9231696640      -732.5481808466     -1190.2509341131       119.4721650452       152.8268387759        -4.9654907348      2144.3190191529     -3103.3413249657      -498.5621413866      -615.7098483574       832.3455659309 
   24000       158.5590096688      9634.1631065095         0.9223023614      -708.6566359898     -1181.7635598181       122.6889919860       155.2446022202         0.2125695502      2147.1648400021     -3103.7135813397      -503.3609822369      -829.9854556557      -863.5233560339 
   25000       157.2644846264      9695.1898618019         0.9164968928      -672.3217828039     -1141.5661146426       125.8610102864       169.8165185448        -5.5097845887      2164.6221446246     -3102.0577335812      -494.2982699284      -634.3933309858       268.2457859660 
   26000       167.8632863201      9834.7017282461         0.9034957672      -613.6184597412     -1114.4873992011       141.1440546958       184.4988457043        -2.5659365166      2147.1745447681     -3103.3760913772      -481.3628164755      -560.6793305293       369.0963164767 
   27000       172.3759651741      9548.8044401730         0.9305470061      -641.9889687908     -1156.3227981695       133.6527958884       175.7698788833        -5.2912680095      2141.9203784087     -3103.4153654312      -498.9592179093      -625.9468496898       115.1958537727 
   28000       160.3821471118      9713.4645474257         0.9147726169      -618.1020431108     -1096.6488277783       133.9877173104       203.4699707577         3.3645888991      2139.2877717193     -3103.5237621127      -473.2351143520      -815.2311522931     -1391.5560715741 
   29000       180.8034185439      9841.0829413856         0.9029099172      -563.5059684970     -1102.9855562140       147.6533592545       182.1068677187        -7.4584228238      2168.0938409547     -3103.5861098387      -489.7950914794      -703.2117599059      -973.4096074881 
   30000       184.1877763480      9902.1419020463         0.8973423600      -515.2338357041     -1064.8116393041       149.9941397563       195.3285351152        -1.5356172995      2184.6291448805     -3103.1910614112      -490.0367803454      -734.6597574999     -1519.4376950246 
   31000       179.7365249842      9709.9639595094         0.9151024062      -524.7969985023     -1061.0931989673       152.2483707265       207.9500945977        -5.6208613517      2182.2918915831     -3103.3898646540      -494.5728298689      -296.4094207816      1612.7942673425 
   32000       180.9239289370      9776.4292449992         0.9088810609      -541.3353047123     -1081.1744702389       145.9157523509       201.6491919478        -1.2954892887      2153.4207701953     -3103.6590226311      -477.2056728131      -632.5364890630      -639.6528323722 
   33000       187.4800966482      9984.9729267165         0.8898983952      -467.1605108443     -1026.5619096645       161.6792942013       205.7608342874        -7.2465383071      2205.8335387683     -3103.2400446013      -489.3489940131      -605.2737970082      -948.4461492492 
   34000       187.6157381009     10072.0959684961         0.8822008261      -444.8095478154     -1004.6156723624       164.7408493216       226.1057219113        -2.0397718976      2177.4834877649     -3102.6782264453      -468.2277330173      -366.9818197611       529.8325167299 
   35000       202.3686792685     10069.3097711481         0.8824449327      -386.4452304779      -990.2710460397       171.2605478070       214.6864869155         3.6753038731      2209.5893902644     -3103.2813854902      -486.2013894095      -737.1561659478     -2388.2166220816 
   36000       202.2703229554     10130.0417552743         0.8771544677      -381.1571550383      -984.6894959321       171.8262868059       229.3150444321         0.1728352450      2183.9091578039     -3102.0620648654      -467.8507553535      -510.9012924013      -878.2145295595 
   37000       204.9745206160     10057.1974012662         0.8835077039      -375.8083250311      -987.4094261883       165.4823821656       226.6089530868         0.8278163818      2178.7054699636     -3103.5474510892      -455.4865966969      -254.9639454562       823.8982728988 
   38000       203.3491666972     10136.6295780392         0.8765844027      -339.9780413368      -946.7294263266       174.1383245240       238.8673526962         4.7056410900      2216.3181950636     -3102.0289811697      -478.7299585307      -312.4287711544       186.3548210252 
   39000       214.8736519264     10152.1071330062         0.8752479921      -291.7587939530      -932.8968326366       190.6815748538       238.6609600328         4.1440736091      2214.7511352199     -3103.5883546482      -477.5462217039      -673.5410448051     -2578.5980657109 
   40000       223.9440716228     10006.8740475529         0.8879507568      -296.6852140258      -964.8874880962       175.6680991041       233.7956409056         2.6781785007      2196.2755702992     -3103.0234279492      -470.2815489566      -144.4993672782      1042.7974057964 
   41000       229.0529798562     10189.8628500538         0.8720050028      -216.4383127043      -899.8845004665       201.3573561807       255.6766272035         9.0926145774      2199.4073588730     -3102.5209960135      -462.8974612876      -464.5938105283     -1669.8585064116 
   42000       230.2513932571     10137.4057625707         0.8765172858      -207.7076608336      -894.7296635481       193.5092018122       245.2742870846         2.6034847308      2231.5084404467     -3101.2021979888      -466.4228796336      -259.7885026472      -352.2696889777 
   43000       240.8276912694     10120.2354408937         0.8780044136      -160.9932853122      -879.5727493688       211.7243170116       244.9001658633         1.4296988733      2231.5396634095     -3102.4303023543      -466.7362921722       146.6920335624      2084.6841713530 
   44000       235.9611470708     10115.0131733260         0.8784577174      -163.2811652218      -867.3398791784       197.9769546541       249.4832600803         9.2883718069      2233.0963177007     -3101.5406439364      -455.6441394840      -333.6079141897     -1154.6238258622 
   45000       236.3701091113     10386.6876612154         0.8554807532      -123.7680001830      -829.0469713384       213.4059720260       262.4661188056         6.5587494319      2273.1518954248     -3103.3764809157      -481.2532261110      -486.4119198290     -2394.0181500181 
   46000       238.0766258528     10417.4757981768         0.8529524384      -128.8005242152      -839.1713844264       216.1010760414       259.8683721227         9.4559573872      2235.5092018507     -3103.6686962503      -456.4372955782      -183.4317485116      -359.5858087014 
   47000       247.4341648929     10535.7080910458         0.8433805594       -62.1078774750      -800.3996771465       222.7079562952       268.5555982361        -2.7399967440      2255.0002932475     -3102.9366462902      -440.9868818912       223.3032080365      1857.5102487494 
   48000       243.7139869209     10709.8297189596         0.8296687825       -70.8779947585      -798.0695613994       220.7095162161       262.0315299006         2.3740536186      2235.2543802878     -3103.2361076367      -415.2029337857       223.7445517608      1886.2859231392 
   49000       249.3799502756     10722.0530466677         0.8287229456        17.1522965642      -726.9453197477       239.6086585353       286.4621553652        -0.1831052949      2290.2465031310     -3102.1543446541      -440.9251868302      -182.7014023990     -1278.0809151147 
   50000       255.7104323870     11371.3036946593         0.7814065671        62.9452105281      -700.0412404476       239.2613432290       293.7456050527         9.1512688957      2248.8233085033     -3099.0310832808      -391.9916828476        78.4623240546        93.5674491209 
   51000       264.4921483821     11125.6086309300         0.7986629477        74.8218477428      -714.3674071547       228.9136842855       301.5873556505        10.9063477509      2283.7591189155     -3102.1274341283      -437.4064796287      -310.8693233107     -2377.0593731930 
   52000       268.3827816849     10836.7896915336         0.8199486782        75.1604947907      -725.6375961955       242.6848907742       284.8708394668        10.5268057254      2257.0160947237     -3103.1247635553      -417.6114633303        40.7590449251      -217.6708193226 
   53000       270.2157114459     10983.2150798030         0.8090173341        84.1555926310      -722.1115774233       230.1386683500       296.4171566728         5.0262260090      2273.4666644347     -3101.5414957051      -425.6187971847       342.0364154131      1609.9547490039 
   54000       273.0733952479     10823.6071817453         0.8209473269       133.2681046650      -681.5257961985       239.5765915572       319.9434550420         8.0720956355      2262.1431857514     -3102.8440836741      -408.4170405105       108.7338861280      -155.4262317631 
   55000       275.7650672217     11107.2363399864         0.7999840025       132.1861628074      -690.6391242896       222.5926454841       305.4324609831         7.0039977005      2279.0430960354     -3101.0348221907      -403.6765023022       475.6884217473      2120.5459867310 
   56000       285.4828550318     11170.3461426651         0.7954642829       191.6515229306      -660.1696106144       248.6112430879       295.2557971615         8.7320613304      2334.2879294848     -3101.1085327445      -445.9481089344       162.1384008667      -181.1643055442 
   57000       286.8439039956     10904.0182599088         0.8148932964       229.0670130801      -626.8152059231       261.6107304613       302.9698051318         6.5589009031      2326.6897472805     -3102.5569612041      -422.0874284956       450.9453369764      1395.2512394773 
   58000       288.3955089755     10984.3917079102         0.8089306736       237.9850478236      -622.5268359370       262.4217179954       314.8841559317         8.4082223402      2316.3396508562     -3102.3299574598      -422.2506256008       -30.6643012079     -1677.0032008792 
   59000       283.8214626827     11046.4609779656         0.8043853503       207.7541074038      -639.1097788349       249.2172804126       325.2811323243        11.1158685207      2289.5316955791     -3102.5564579072      -411.6992977642       -41.4123453201     -1546.6445559829 
   60000       292.6195942990     11236.7982379993         0.7907600720       302.1003277862      -571.0153431548       274.5014902963       335.2239972953         5.9063422958      2315.2726279994     -3101.1314269176      -400.7883741240         2.2955342169     -1829.4481282873 
Loop time of 62.4103 on 64 procs for 50000 steps with 1002 atoms

Performance: 69.219 ns/day, 0.347 hours/ns, 801.149 timesteps/s
99.4% CPU use with 64 MPI tasks x no OpenMP threads

MPI task timing breakdown:
Section |  min time  |  avg time  |  max time  |%varavg| %total
---------------------------------------------------------------
Pair    | 6.6411     | 10.788     | 15.192     |  66.1 | 17.29
Bond    | 0.21582    | 0.2589     | 0.31775    |   4.6 |  0.41
Kspace  | 6.9434     | 11.34      | 15.514     |  64.7 | 18.17
Neigh   | 20.727     | 21.019     | 21.259     |   2.3 | 33.68
Comm    | 16.964     | 17.211     | 17.538     |   2.7 | 27.58
Output  | 0.031199   | 0.031236   | 0.031651   |   0.0 |  0.05
Modify  | 1.0519     | 1.0922     | 1.1298     |   1.9 |  1.75
Other   |            | 0.6704     |            |       |  1.07

Nlocal:    15.6562 ave 24 max 9 min
Histogram: 2 4 11 7 15 8 10 0 5 2
Nghost:    4721.84 ave 4783 max 4637 min
Histogram: 1 2 9 3 10 9 7 8 9 6
Neighs:    11965.9 ave 22849 max 5467 min
Histogram: 7 8 9 12 8 13 4 1 0 2

Total # of neighbors = 765820
Ave neighs/atom = 764.291
Ave special neighs/atom = 5
Neighbor list builds = 50000
Dangerous builds not checked
unfix anneal

# RUN EQUILIBRATION PHASE AT FINAL TEMP
fix anneal all npt temp ${FINAL_TEMP} ${FINAL_TEMP} 100.0 iso ${pressure} ${pressure} 1000.0 # NPT, nose-hoover 100 fs T relaxation
fix anneal all npt temp 298.0 ${FINAL_TEMP} 100.0 iso ${pressure} ${pressure} 1000.0 
fix anneal all npt temp 298.0 298.0 100.0 iso ${pressure} ${pressure} 1000.0 
fix anneal all npt temp 298.0 298.0 100.0 iso 1.0 ${pressure} 1000.0 
fix anneal all npt temp 298.0 298.0 100.0 iso 1.0 1.0 1000.0 
run ${nSteps_ramp}
run 50000
PPPM initialization ...
WARNING: Using 12-bit tables for long-range coulomb (../kspace.cpp:321)
  G vector (1/distance) = 0.186396
  grid = 8 8 8
  stencil order = 5
  estimated absolute RMS force accuracy = 0.00733607
  estimated relative force accuracy = 2.20924e-05
  using double precision FFTs
  3d grid and FFT values/proc = 343 8
Per MPI rank memory allocation (min/avg/max) = 10.43 | 10.54 | 10.55 Mbytes
Step Temp Volume Density TotEng PotEng E_bond E_angle E_dihed E_coul E_long E_vdwl Enthalpy Press 
   60000       292.6195942990     11236.7982379993         0.7907600720       302.1002961714      -571.0153747696       274.5014902963       335.2239972953         5.9063422958      2314.5690911735     -3100.4279217065      -400.7883741240         2.2953048206     -1829.4493351758 
   61000       299.4026250351     11254.6561104221         0.7895053653       315.9526711808      -577.4021448740       279.6321293241       337.0034987835         2.1585218492      2333.2892318555     -3101.8614841566      -427.6240425298       184.5343136681      -800.6596015137 
   62000       280.0656680728     11459.6750711826         0.7753807441       250.0866248451      -585.5707557643       257.2622824037       308.4214134226        21.7030927109      2314.9811172480     -3101.1454734936      -386.7931880560       393.8046542811       859.9299215847 
   63000       300.5806228616     11126.2813576211         0.7986146582       312.2473043947      -584.6224108080       280.9714651482       336.7208246728         2.6772436641      2316.4543417850     -3101.9716920783      -419.4745939997      -161.7856105247     -2921.3431324553 
   64000       309.7910822848     11264.8264155246         0.7887925704       359.0500531596      -565.3017466870       283.5190302196       328.7485843804        17.3231696160      2298.1590569034     -3100.9359128439      -392.1156749624       348.8282107994       -62.2198250697 
   65000       298.9876329341     11306.3524003715         0.7858954921       306.7384242284      -585.3781421882       255.9022100469       326.0207996898        12.1774054424      2307.9607073053     -3100.2896889218      -387.1495757508       455.4290691239       901.7481044973 
   66000       303.9775112606     11175.2689849295         0.7951138711       309.3105151687      -597.6948045915       262.6310633978       335.0530746732        10.8356738575      2286.1739911557     -3101.5625742187      -390.8260334570       311.5028923518        13.4518308896 
   67000       308.6617344675     10675.4786850736         0.8323384502       303.2719953570      -617.7100667945       250.4941297454       341.2496501539        15.6233621814      2282.2148154443     -3100.9018176561      -406.3902066635       427.0734399075       795.1745376449 
   68000       298.3240320359     11274.6607820248         0.7881045430       302.6479179267      -587.4886021952       286.2645900420       302.2878979421         5.5714077760      2331.2341576873     -3101.3346961430      -411.5119594996       503.6025641906      1222.1335832267 
   69000       304.0268524539     11294.9876971316         0.7866862383       322.6801331528      -584.4724104088       278.1341312371       319.0606405698        23.8104403262      2287.3406655424     -3100.7926488382      -392.0256392461       500.7647403518      1081.0971715034 
   70000       303.5090509983     11472.8109207933         0.7744929682       332.5891498080      -573.0183825032       284.0179414946       331.8799845859         5.0912096035      2306.5159095259     -3100.3348651709      -400.1885625423       230.0283214211      -612.9651653919 
   71000       297.2757004395     11056.4047268622         0.8036619139       271.1320059098      -615.8765119766       263.9080683730       321.8759996260        19.9961170388      2295.7929954333     -3100.3009830942      -417.1487093534       243.8618093890      -169.1213553020 
   72000       292.8756912165     10882.7616425984         0.8164849765       231.4652133584      -642.4145972241       272.5771377400       287.2368701560         4.8221912882      2323.9517368314     -3100.5613217536      -430.4412114862       456.6427361385      1418.7635765377 
   73000       299.2041220224     11196.6533659663         0.7935952908       296.8569545372      -595.9055700425       282.9618746391       309.9865297586         9.9644637334      2322.1900033467     -3100.3361815918      -420.6722599285       282.6425832366       -87.0489492217 
   74000       304.3607857748     11322.1489163678         0.7847990209       324.0600831924      -584.0888475600       278.2633897943       305.1283964587        10.8859902576      2323.9303959344     -3101.6911954347      -400.6058245703       374.4323955205       305.0613131601 
   75000       276.6643255644     11352.9983179749         0.7826664934       242.5553530670      -582.9531328538       272.2567946429       315.4558435467         3.1899568006      2326.6195658047     -3100.2694524697      -400.2058411791       568.1444802551      1966.4523650262 
   76000       300.5592158795     11601.5668754780         0.7658975274       357.2220128796      -539.5838283655       270.2607338047       347.9665473750        12.4941378862      2334.1966100235     -3100.4448847300      -404.0569727249       339.3457108566      -105.6538059841 
   77000       293.1650992541     11130.7673198452         0.7982927976       308.5867776008      -566.1565660394       283.6474390113       336.2052734593         8.2684016606      2330.2170253537     -3099.9875767235      -424.5071288008      -175.6929605463     -2983.2888521671 
   78000       278.5024513441     11228.9312431966         0.7913140789       222.2490136236      -608.7440551985       275.4219559233       310.8736590817        13.1615362483      2314.6927614331     -3100.6114174010      -422.2825504839       353.5158690744       801.5687357380 
   79000       291.1204665224     11404.2008140345         0.7791524832       335.3590596832      -533.2835275000       288.3670347740       322.7670687328        12.3945385146      2339.7077506230     -3099.5705138549      -396.9494062894       191.1195102320      -867.2486084260 
   80000       298.7473014253     11097.6882823289         0.8006722803       372.9841103872      -518.4153570701       302.3182289114       316.9697452992        13.5519766730      2362.4041567407     -3100.8517683810      -412.8076963134       663.5438571041      1795.2586870640 
   81000       304.5063096772     11357.8912302967         0.7823293253       317.1756351303      -591.4075085120       277.2631277032       302.0215591631        13.0328790869      2326.2305339309     -3101.0023405634      -408.9532678326       348.2318552096       187.4886581981 
   82000       303.8824935686     11604.4993333951         0.7657039850       341.3918705886      -565.3299362507       284.0549840599       309.8857774576         6.5254458327      2307.1535449093     -3100.7554704787      -372.1942180315        21.5932122621     -1889.6194045589 
   83000       309.9679522938     11136.6106065037         0.7978739401       331.9615079232      -592.9180350396       282.5824371454       313.2413061662         4.8921355070      2317.5916586309     -3102.1674508506      -409.0581216385       364.0881376557       197.8045347807 
   84000       305.8781046776     11193.0131181939         0.7938533878       292.3827812605      -620.2935117660       269.6864737679       305.3575181882        16.7697821310      2304.8133186113     -3101.5742444727      -415.3463599916       769.7164933869      2924.1470300229 
   85000       298.3528687265     11234.8650911675         0.7908961355       317.6406746811      -572.5818880948       261.4510502291       338.6530578950        13.2414649149      2332.8940293402     -3101.2437212139      -417.5777692602       407.1546429180       546.3199488877 
   86000       282.6916556735     11299.6992557951         0.7863582191       287.0426825403      -556.4500958706       285.5507105443       315.6731447283        10.6925290591      2322.7030148241     -3101.8813857535      -389.1881092730       359.1593260484       437.6155354691 
   87000       289.3527445899     11379.8990414252         0.7808163632       265.0902596629      -598.2778149748       288.7967776520       306.8105341893         8.9434085840      2326.1744505279     -3101.4350189290      -427.5679669990       183.6457018950      -490.7358330854 
   88000       295.2139958390     11453.4731980962         0.7758006004       320.3850404564      -560.4717820869       294.0051439337       313.1805539322        10.4500143482      2303.5685139850     -3102.0823780249      -379.5936302612       477.1763197791       938.6610788738 
   89000       294.5214135992     11124.8946477981         0.7987142049       258.1919793672      -620.5983226192       280.7311987552       307.8489992438         6.0580159635      2303.8651443060     -3101.0499011457      -418.0517797420       -28.6876578635     -1768.1859148729 
   90000       288.4846650087     11246.9584680640         0.7900457185       304.3568820148      -556.4210247028       299.7037966269       322.5613087829        12.1191174358      2317.1968016642     -3100.7710327449      -407.2310164678       289.6730385203       -89.5217918146 
   91000       299.9840974435     10855.3515296394         0.8185466274       256.5185643224      -638.5712437900       255.0488599999       318.7352043454        20.3648130024      2278.9346661780     -3102.7998732583      -408.8549140573       302.1689197499       288.3529388527 
   92000       303.7872562386     11395.2222662900         0.7797663947       350.7824605179      -555.6551780466       290.8421139421       341.1907341027        10.1819748554      2320.1772357280     -3101.4313207006      -416.6159159743       575.9369737696      1354.8211472309 
   93000       288.5954450798     11127.1726292676         0.7985506902       241.1902859183      -619.9181653630       259.3618186570       321.7494759990         9.7982137881      2307.8990747217     -3099.8291936954      -418.8975548336       110.0703859971      -807.9935498535 
   94000       302.0621097281     11514.6122932408         0.7716813348       318.4859103679      -582.8042518062       269.5181235849       312.5538046078         9.2309261084      2313.8792116426     -3100.2720291951      -387.7142885548         8.6015824335     -1845.3315368921 
   95000       307.5641621401     11041.0811695482         0.8047772901       299.0369739662      -618.6701619063       265.4370950040       312.2255003779         6.4433785427      2306.1607327072     -3101.3265995448      -407.6102689932       628.1892875716      2044.1342737121 
   96000       284.9562738285     10996.8257650472         0.8080160197       276.6451621782      -573.6047631851       262.7021186468       333.0432801799        13.1754017646      2360.0047876400     -3101.4591625139      -441.0711889025       256.9146272797      -123.0256379429 
   97000       309.0837872923     11520.2131386324         0.7713061622       348.9694373373      -573.2719421750       275.5550623949       324.5394840894         5.0275944148      2334.8733873788     -3101.3584753085      -411.9089951443        60.5624896908     -1716.6008160725 
   98000       288.5839110289     10984.4907659198         0.8089233787       257.7119327609      -603.3621033245       285.3358961265       331.9538196997         4.2408668699      2297.4289906629     -3101.3316825834      -420.9899941001       401.4675837031       897.3649614222 
   99000       292.0446173761     11254.8898184061         0.7894889712       274.7104411637      -596.6896188900       278.5629821215       321.8198838416         4.2626473240      2341.1958017497     -3102.2461217969      -440.2848121300       148.5701557600      -768.4872599672 
  100000       299.8386275339     11168.4052401549         0.7956025227       304.7656258754      -589.8901304503       268.4370314204       336.6084438604        12.2756537421      2301.0022513964     -3100.2806880323      -407.9328228374       184.7588059432      -736.7817745686 
  101000       276.5995746958     11244.2078146127         0.7902389862       214.1342682944      -611.1810145768       263.4228659348       315.6875733297        10.0893376019      2279.1369397627     -3101.2661618581      -378.2515693479       261.9084697935       291.3323311605 
  102000       297.3203086830     10884.3797622377         0.8163635942       284.9137581385      -602.2278614170       280.4585265139       324.2212674887         4.2391989382      2324.5655217311     -3101.5603537381      -434.1520223508       750.4116047860      2932.5005400188 
  103000       300.7766540596     11365.7672043394         0.7817872057       345.4974482900      -551.9571830093       265.5190427466       340.9715012220        14.5602961065      2329.3219958617     -3099.9651205708      -402.3648983754       138.1435517938     -1250.9430970389 
  104000       296.1972170572     11129.3771950426         0.7983925091       302.2055220974      -581.5850269301       270.1440190505       325.5458553036         5.5036197378      2345.4131755117     -3100.5161364587      -427.6755600751      -205.4364760753     -3127.5970426845 
  105000       289.8638580010     11349.5727550737         0.7829027202       261.4882038091      -603.4049263531       257.1257682590       310.1689718173        10.4438357868      2318.1348234215     -3101.6042658560      -397.6740597818       142.3976272415      -719.4854161381 
  106000       296.8021394301     11341.8236368944         0.7834376259       323.8485663456      -561.7469445291       305.0486812743       310.7421968725        12.4650658628      2320.8186738358     -3100.9452902094      -409.8762721650       442.3779351589       716.5841411998 
  107000       298.6002463075     11611.3419104060         0.7652527548       365.3695080014      -525.5911777395       299.3899164804       336.8103871618        18.5522424779      2298.2555833249     -3101.3669119811      -377.2323952034       145.5021855460     -1298.3816967401 
  108000       301.5135237253     11385.4696250913         0.7804343322       317.8156523127      -581.8376439603       271.8882814369       328.3647009760         5.9778980470      2312.0734731959     -3100.7264948161      -399.4155027999       243.4701292242      -447.7421527955 
  109000       301.1718961311     10967.9351234300         0.8101444149       296.8870333752      -601.7469176047       264.9014820116       343.6265407139         6.1429344671      2300.6267805673     -3102.0469137717      -414.9977415929       365.2539975724       427.4108408382 
  110000       297.0546274258     10929.6726174171         0.8129805617       289.8812329569      -596.4676492917       276.8594165686       328.6944327580        10.2669043333      2313.8823690656     -3102.1373241342      -424.0334478830       601.7643060270      1956.6302426723 
Loop time of 58.8916 on 64 procs for 50000 steps with 1002 atoms

Performance: 73.355 ns/day, 0.327 hours/ns, 849.017 timesteps/s
99.3% CPU use with 64 MPI tasks x no OpenMP threads

MPI task timing breakdown:
Section |  min time  |  avg time  |  max time  |%varavg| %total
---------------------------------------------------------------
Pair    | 6.4467     | 9.8581     | 13.431     |  63.8 | 16.74
Bond    | 0.23746    | 0.26026    | 0.29434    |   2.4 |  0.44
Kspace  | 8.0201     | 11.597     | 15.007     |  58.9 | 19.69
Neigh   | 19.983     | 20.237     | 20.45      |   2.3 | 34.36
Comm    | 15.128     | 15.326     | 15.609     |   2.8 | 26.02
Output  | 0.031261   | 0.031301   | 0.031734   |   0.0 |  0.05
Modify  | 1.053      | 1.0958     | 1.1287     |   1.9 |  1.86
Other   |            | 0.4865     |            |       |  0.83

Nlocal:    15.6562 ave 23 max 6 min
Histogram: 1 0 4 5 12 16 7 13 4 2
Nghost:    4812.5 ave 4937 max 4709 min
Histogram: 3 5 9 8 12 12 8 4 2 1
Neighs:    12306.7 ave 21404 max 3653 min
Histogram: 1 3 9 9 12 10 11 3 4 2

Total # of neighbors = 787631
Ave neighs/atom = 786.059
Ave special neighs/atom = 5
Neighbor list builds = 50000
Dangerous builds not checked
unfix anneal
undump anneal

# RETURN TO LESS FREQUENT NEIGHBOR BUILDS
neigh_modify every 1 delay 10 check yes one 10000 # More relaxed rebuild criteria can be used

#===========================================================
# RUN EQUILIBRIUM SIM
#===========================================================

# UPDATE RUN PARAMETERS AND CREATE FIX
fix equil all npt temp ${FINAL_TEMP} ${FINAL_TEMP} 100.0 iso ${pressure} ${pressure} 1000.0 # NPT, nose-hoover 100 fs T relaxation
fix equil all npt temp 298.0 ${FINAL_TEMP} 100.0 iso ${pressure} ${pressure} 1000.0 
fix equil all npt temp 298.0 298.0 100.0 iso ${pressure} ${pressure} 1000.0 
fix equil all npt temp 298.0 298.0 100.0 iso 1.0 ${pressure} 1000.0 
fix equil all npt temp 298.0 298.0 100.0 iso 1.0 1.0 1000.0 

# CREATE COORDINATE DUMPS FOR EQUILIBRIUM
dump equil all custom ${coords_freq} equil.lammpstrj id type x y z mol
dump equil all custom 1000 equil.lammpstrj id type x y z mol
dump_modify equil sort id format float %20.10g

# RUN EQUIL
run		${nSteps_equil}
run		100000
PPPM initialization ...
WARNING: Using 12-bit tables for long-range coulomb (../kspace.cpp:321)
  G vector (1/distance) = 0.186962
  grid = 8 8 8
  stencil order = 5
  estimated absolute RMS force accuracy = 0.00713684
  estimated relative force accuracy = 2.14924e-05
  using double precision FFTs
  3d grid and FFT values/proc = 343 8
Per MPI rank memory allocation (min/avg/max) = 11.04 | 11.05 | 11.05 Mbytes
Step Temp Volume Density TotEng PotEng E_bond E_angle E_dihed E_coul E_long E_vdwl Enthalpy Press 
  110000       297.0546274258     10929.6726174171         0.8129805617       289.8789556110      -596.4699266376       276.8594165686       328.6944327580        10.2669043333      2323.2654933724     -3111.5227257869      -424.0334478830       601.7513946872      1956.5635292277 
  111000       304.4973980665     11273.3749791699         0.7881944316       289.0597321085      -619.4968211513       251.9182438544       327.7103240768         2.9650423156      2318.5066408827     -3110.9940394417      -409.6030328392      -225.8324406629     -3131.7453955074 
  112000       279.0719239246     11166.4452911897         0.7957421679       196.4113382931      -636.2809176096       258.0229229611       301.2762480013        10.6369927063      2315.5545559132     -3110.7648583240      -411.0067788676       -91.3504744909     -1767.0235142506 
  113000       309.4681082483     11152.4257501811         0.7967424830       344.5943360934      -578.7937767748       249.7525394240       333.9267749638        17.3954951925      2354.6300752470     -3110.0045509626      -424.4941106395       119.2139045133     -1385.7056134372 
  114000       291.3122159743     11322.7560230058         0.7847569413       250.1560874870      -619.0586399579       264.9991474429       297.2528202356         5.2336907373      2342.6838297900     -3110.3189354441      -418.9091927197        -6.5812734669     -1554.7516767227 
  115000       300.3904570263     11179.1464814072         0.7948380852       319.1227197330      -577.1795803882       284.0785403553       306.7731855861        12.9531475267      2340.1614167605     -3110.8025858412      -410.3432847756       448.2719516669       792.1497537310 
  116000       294.1017012311     11421.0985934066         0.7779997091       320.9576192747      -556.5803487837       268.0209943232       323.0144701780        16.9479629488      2360.4897891481     -3108.8153506457      -416.2382147361       592.2800197430      1628.9279706285 
  117000       287.8864714198     10873.1340114717         0.8172079342       291.1141627320      -567.8788594224       280.3383179737       322.1523471315        16.5117179864      2357.7799834468     -3108.3943156636      -436.2669102973       405.3693933339       720.5190389046 
  118000       310.5978494709     11660.6928177803         0.7620140177       368.1317526006      -558.6272718018       270.9776017431       326.8396556334         4.7274446162      2342.6629761882     -3108.5314163658      -395.3035336169        95.9750357091     -1600.3641464940 
  119000       308.3014785228     11288.7958499211         0.7871177318       386.4415892928      -533.4655444636       274.6156069040       326.1905178541        19.6609069350      2385.5178996839     -3108.6507384017      -430.7997374388       -60.3532914560     -2713.8427526149 
  120000       301.7733287971     11088.2194384924         0.8013560187       318.5108511427      -581.9176491289       273.6616194311       319.0922386123        12.0335651843      2336.7623818177     -3109.4183858532      -414.0490683211       140.3165903242     -1101.9350847262 
  121000       292.2152071854     11144.6195381951         0.7973005586       262.5744993608      -609.3345650067       265.3001207265       320.3326609574        14.0361982453      2301.7620220816     -3109.8282047806      -400.9373622369       492.6938247518      1415.8327566820 
  122000       295.3476935031     11576.4376794707         0.7675600759       302.5250449873      -578.7307034242       270.3009184909       315.6807803520         6.2276122408      2324.7344357706     -3111.1233448442      -384.5511054342       222.1640964346      -475.9860522488 
  123000       307.5557091595     11152.0146728779         0.7967718519       340.4945732325      -577.1873407139       254.2606538782       326.2067398889        11.2883113814      2342.3601828249     -3110.4661463971      -400.8370822902       738.6476235067      2448.0530545848 
  124000       303.3274645519     11242.8002721001         0.7903379201       313.4876586864      -591.5780576458       265.3718469252       308.5523870812        14.3677237650      2329.7482017503     -3110.3140203312      -399.3041968364       489.3915267766      1072.8154139007 
  125000       297.0378638781     11323.0102415223         0.7847393223       326.2162751741      -560.0825881543       272.7468956048       334.8225389978        12.4443610600      2346.2922817552     -3109.3910696404      -416.9975959317       171.1158428920      -939.2370562732 
  126000       302.6212527653     11267.1449427325         0.7886302545       358.1008522594      -544.8576757986       264.8651381618       330.2807213508        14.7056068558      2361.8125879630     -3109.3448784491      -407.1768516808       372.9110894867        90.1305963147 
  127000       288.7888045785     11000.7732242241         0.8077260755       261.5260241822      -600.1593714041       263.8347490456       320.0425514839        15.2258903966      2341.9643605671     -3110.3504478817      -430.8764750156      -141.1968256473     -2510.1933231639 
  128000       308.1335609751     11233.8564046012         0.7909671500       321.4105758888      -597.9955270235       245.5542444630       309.0934778133        11.1676989989      2367.4886871437     -3110.1346549981      -421.1649804443       506.6001626543      1130.3470492833 
  129000       284.8746887559     11069.2269887985         0.8027309759       250.3701937637      -599.6362988057       253.9017502418       299.8824031833         9.0103247989      2352.1887627320     -3110.6799725255      -403.9395672361       202.2523743417      -298.0662167614 
  130000       295.2695109170     11380.7762186581         0.7807561816       301.7761440255      -579.2463239001       268.4326613916       314.9169515237        13.3337103327      2337.1565623850     -3110.7287977888      -402.3574117444       360.7588848875       355.3670659678 
  131000       309.6546085101     11639.9397246927         0.7633726285       385.6183643775      -538.3262262673       290.9672759137       320.4482304031        14.9965294738      2343.0980394333     -3110.6348615563      -397.2014399350       408.0150124485       131.9339013657 
  132000       297.6181124470     11540.6285108322         0.7699417216       370.7327144225      -517.2974892821       258.7455897107       343.6522265912        13.7599207974      2384.2051323000     -3110.1137746839      -407.5465839975       413.5970146415       254.6773880940 
  133000       294.4271956863     11457.7723675353         0.7755095056       285.5553024403      -592.9538729985       244.9411951224       311.1373820089        11.6692812018      2357.1720933599     -3111.0778065928      -406.7960180985       620.0737279538      2001.9073071087 
  134000       290.7711305436     11804.3398566663         0.7527410674       319.9065040199      -547.6937376626       257.9745195341       327.6373675428        10.1433887903      2368.0377194333     -3110.5166514973      -400.9700814657       199.7972381773      -697.6842488137 
  135000       304.3243191531     11181.3258201432         0.7946831643       315.9638313762      -592.0762906036       260.9119491402       315.2959505149        18.3579380969      2328.8383118555     -3109.8318326382      -405.6486075729       204.6042682578      -682.9019081415 
  136000       285.1912037531     11813.3522140872         0.7521668044       305.5687823464      -545.3821247788       268.0484655485       324.2838416764        23.0530881465      2332.3111700917     -3110.3734389006      -382.7052513413       634.4538776804      1908.9526237339 
  137000       314.0793781349     11483.5166493035         0.7737709323       361.0078754065      -576.1393024027       263.9895934910       322.4521685722        18.5918226768      2339.0954964797     -3110.7341842065      -409.5341994158        -5.4957225923     -2188.4037419930 
  138000       299.1216257786     11528.1548150447         0.7707748140       316.9252584794      -575.5911145620       261.4464187864       309.4013179856         7.2860378908      2339.7694080071     -3110.9893167317      -382.5049805002        46.1527964456     -1610.5299456143 
  139000       302.8853030379     11581.0162883185         0.7672566174       363.9494846319      -539.7969142161       278.2948013959       303.0723380205        15.4570820342      2369.8989806936     -3110.3466568411      -396.1734595193       437.1216494286       433.2348074918 
  140000       292.7031246326     11636.6411351684         0.7635890185       303.8923432489      -569.4725647378       260.1100364624       309.7182266572        12.8385957169      2357.6432340787     -3109.2454212048      -400.5372364483       -26.8303916752     -1948.7697072377 
  141000       303.9287263319     11504.8658318893         0.7723350723       310.0424047297      -596.8173510062       237.2529468196       306.9177289303        14.4260075973      2344.5705700874     -3110.6761139471      -389.3084904937       348.5899408554       229.7413540425 
  142000       300.9740629165     11549.0864015667         0.7693778603       378.8383567569      -519.2053012855       275.2857747295       319.3117585644        20.2675302331      2373.5189006496     -3111.4392356597      -396.1500298023       375.5052154407       -19.7892897393 
  143000       303.7780116110     11332.7951550619         0.7840617661       303.2871280172      -603.1229265117       250.1041766370       293.6540402694        13.5845353248      2357.4222670216     -3110.7756642212      -407.1122815433        59.5028452224     -1475.0025606600 
  144000       280.0842965084     11579.9812199254         0.7673251981       256.2528134102      -579.4601505550       253.3457351609       286.6593776760        14.9678045729      2368.2380529953     -3110.1461857850      -392.5249351751       262.4922162696        36.9453072930 
  145000       304.2073574240     11424.9930427849         0.7777345115       321.9621727285      -585.7289599131       241.7275342765       316.5585463527        16.7075197132      2357.4808002766     -3109.8117434600      -408.3916170722       318.2574445879       -22.2343537237 
  146000       290.5537073177     11474.1995568060         0.7743992371       325.4503501129      -541.5011461353       249.9026848908       326.0864480297         7.5193716146      2368.4704657962     -3109.6263221211      -383.8537943454       543.5931943961      1303.5949917067 
  147000       303.7378710778     11445.5091507917         0.7763404202       361.9694504052      -544.3208331679       267.3270558119       318.1209969775         6.2753120413      2404.6468787274     -3110.8101218791      -429.8809548470       662.1082826954      1798.0889918438 
  148000       309.1811312684     11443.5332541496         0.7764744670       379.2807433830      -543.2510901954       289.0902140975       299.7746596839        24.9303337996      2361.6514988432     -3110.3283703138      -408.3694263059       297.1297683474      -492.2397675434 
  149000       303.5694545272     11521.7541008117         0.7712030048       337.9752741557      -567.8124896530       259.7990099505       305.2209131739        16.2679217770      2360.1080082274     -3110.4316894408      -398.7766533409       327.7187651188       -61.0386718849 
  150000       298.1995266119     11342.0277826160         0.7834235248       301.5456369934      -588.2193849824       260.7857518146       309.9905809453        12.8728490545      2349.3745095710     -3110.6483187366      -410.5947576311       216.2117422370      -515.8874604587 
  151000       305.7507619526     11427.5473129444         0.7775606734       356.9531691698      -555.3431597977       257.4235489593       336.7606821675         8.0669852983      2357.0445761006     -3109.8917068465      -404.7472454769       633.8015286856      1661.1660129242 
  152000       305.5222716942     11231.5760992736         0.7911277371       277.7566734729      -633.8578883499       253.6668312172       291.2385040661         7.4359760562      2361.9458338246     -3110.0453832035      -438.0996503106       394.9594516730       715.5192346780 
  153000       299.7613514296     11240.9694951791         0.7904666397       333.8527981743      -560.5723824177       261.4722766904       317.3047267099        17.5465352192      2370.6506819127     -3108.4247128733      -419.1218900766       305.6443198185      -172.0679565271 
  154000       298.9565717540     11344.7110525275         0.7832382281       305.7481206670      -586.2757656845       265.6741715725       300.7528086632        19.6945163648      2348.5957179627     -3111.8380549938      -409.1549252538       838.8251399823      3221.9636197107 
  155000       298.9048292844     11874.1725916628         0.7483141512       323.0815200604      -568.7879775834       258.7017987391       318.1632284114        11.9930998530      2355.3311888850     -3110.2612034004      -402.7160900713       274.0624596296      -283.0647148322 
  156000       299.7255912366     11436.5769039237         0.7769467611       307.4574509994      -586.8610286554       269.7465032905       299.8636067469        21.4877145851      2331.7893651221     -3110.2613124463      -399.4869059539       248.9046111393      -351.0556923351 
  157000       301.9078519500     11500.0882990023         0.7726559269       352.4126282709      -548.4172609548       273.6380418520       320.5424102230        12.3155802758      2371.4497985023     -3109.7776210120      -416.5854707959       -72.5030576680     -2533.5279465637 
  158000       306.1883830416     11371.8636093015         0.7813680931       338.4679779120      -575.1341208609       273.8184020374       321.5097230653        11.9011332589      2317.9444262644     -3110.3678056873      -389.9399997996       383.7118816979       272.8051335816 
  159000       301.9815861715     11781.9063979626         0.7541743317       388.0103737519      -513.0395229700       291.9537946294       298.7422411882        12.1653243089      2388.3407191881     -3110.8717958258      -393.3698064589       456.2456242669       397.1159519439 
  160000       302.7677163194     11299.7000869741         0.7863581613       322.8936543919      -580.5018902801       260.1123349207       321.4421702484        18.7873272818      2351.7359756744     -3110.8857631818      -421.6939352237       413.9106508563       552.3059141027 
  161000       297.7054655789     11214.7870297549         0.7923120930       296.7779385680      -591.5129086131       255.3351021605       296.4961343571        14.3795493799      2373.7557540867     -3110.6419982480      -420.8374503495       364.2334881721       412.4304908362 
  162000       300.6447349617     11497.5758423018         0.7728247681       326.4740299004      -570.5869824005       276.9392485623       314.1444583422         4.4843506807      2351.4014317770     -3110.1924189592      -407.3640528035      -143.0707876939     -2800.2375766420 
  163000       286.8227563966     11320.8344855075         0.7848901417       256.6526715183      -599.1664474722       274.8432273474       301.3218910871        12.4553916147      2319.2365303483     -3108.4654878749      -398.5579999948        54.6518448568     -1223.4854710228 
  164000       289.0410961206     11625.1914773315         0.7643410778       286.1409053284      -576.2972754552       267.3277734399       311.1272807374         6.6384048380      2348.4284140903     -3109.7544608324      -400.0646877283       806.2633923675      3067.8182472666 
  165000       290.3703569983     11197.4413486759         0.7935394441       304.4078370465      -561.9965801946       269.5339300802       335.9481951487        15.4700789619      2340.3032419425     -3111.6233928899      -411.6286334380       574.1972024677      1652.0764516423 
  166000       298.8555094651     11582.4598054258         0.7671609945       312.7055892649      -579.0167483527       272.4373540947       293.1890208665        20.6544206559      2333.6083719598     -3108.9808297513      -389.9250861783       692.2584899936      2246.9614614528 
  167000       312.1313244038     11224.2450490420         0.7916444576       324.4732654456      -606.8613274458       265.1682056140       311.2639652021        14.1849840983      2327.7950106659     -3110.1079555585      -415.1655374675       -87.0600432471     -2514.0387236260 
  168000       301.9462054864     11502.6965506895         0.7724807261       345.3883246188      -555.5560035384       280.1461999608       345.1883806648        12.3070599572      2310.7404019696     -3109.4372977664      -394.5007483244       268.0442005104      -461.0539777608 
  169000       304.9968461904     11815.2895187363         0.7520434746       350.3899219417      -559.6568800653       270.8731823149       323.4079224763        13.6182345895      2342.9886605533     -3110.9719594284      -399.5729205710       323.7841786447      -154.4027884276 
  170000       308.5451613024     11705.6067479733         0.7590902014       361.5731672693      -559.0610649374       264.6869906454       337.5363929501        10.8856394175      2367.8585646426     -3109.6785286482      -430.3501239448       -36.1032033247     -2329.4852630599 
  171000       304.3113014527     11419.5233513236         0.7781070287       333.0917609222      -574.9095189622       259.5714842080       317.7014943637        13.4410048967      2350.2192856912     -3110.1666783356      -405.6761097862        73.4607699897     -1558.9517167600 
  172000       312.0881758150     11177.8268697335         0.7949319208       312.0333270998      -619.1725194268       249.7097406230       310.7595501091        11.6861781696      2340.8947883283     -3110.4698458938      -421.7529307630       556.1061549512      1497.2218791164 
  173000       297.7231964680     11472.1191569591         0.7745396698       310.7247350608      -577.6190173853       249.5348466941       328.7307161112        11.1467869943      2355.5960531543     -3109.8468360299      -412.7805843093       535.0069184480      1340.5259845364 
  174000       290.1967808537     11453.0083649659         0.7758320871       295.4275041042      -570.4589982231       262.4592943417       338.9862721629         8.6130397738      2313.4330686585     -3108.8260798911      -385.1245932688       311.7485414850        97.7129876006 
  175000       299.5494633966     11494.7826989773         0.7730125585       317.7171316685      -576.0758193470       279.3874777817       304.4856399433        18.4602735034      2323.5115097116     -3109.4061376825      -392.5145826045       174.8786265566      -852.0569855890 
  176000       303.6476510564     11514.7682830527         0.7716708808       308.9968149012      -597.0242709965       268.2699427768       313.0194183436        14.6503018580      2323.2450296065     -3110.4935155503      -405.7154480312       459.0446408865       893.5083493734 
  177000       309.2707337242     11423.1046676610         0.7778630803       320.8499346458      -601.9492539212       246.8765860543       330.3247861742        18.0154034352      2321.2348128391     -3110.0262899225      -408.3745525016       208.3314930266      -675.4040538507 
  178000       295.6683223905     11350.3503124761         0.7828490874       283.4854234121      -598.7270145431       267.1501029585       309.5235703503        13.8094277644      2320.6104500744     -3109.4070396611      -400.4135260297       589.6426991836      1849.5216942593 
  179000       302.0777638620     11239.3039207450         0.7905837805       339.9579379619      -561.3789328739       272.1863879110       320.1297185991         9.5808462254      2346.9350542897     -3110.9175316477      -399.2934082515       142.5637976702     -1204.2563690364 
  180000       295.0915917694     11388.4573813655         0.7802295856       268.8545165146      -611.6370778847       260.1204954933       294.4841390486        12.2023026324      2349.7634948583     -3111.1023552920      -417.1051546254       576.3481267991      1851.3788807198 
  181000       304.8686871861     11196.8793680233         0.7935792725       321.9137419458      -587.7506603956       265.2889231062       322.3833516518         9.0763225138      2335.8186403381     -3109.8535426186      -410.4643553869       391.0774586452       423.5507299589 
  182000       306.2376010586     11411.9786735533         0.7786214501       339.0336007085      -574.7153543337       262.0043377665       310.0293238443         1.9167588668      2374.3886545836     -3109.0622013775      -413.9922280174       263.0440986340      -456.5798677806 
  183000       297.6220259316     11571.1194569015         0.7679128555       297.1912673664      -590.8506133578       263.5612222001       310.3007774950        10.8191921937      2333.5989446258     -3110.4707413175      -398.6600085548       361.9806081264       383.9302170684 
  184000       312.6067775059     11137.1444564893         0.7978356946       348.5268797656      -584.2263657463       265.1073635361       299.5512485431        19.5964091631      2347.2279883821     -3109.2047803724      -406.5045949983       414.3208842242       405.0760605516 
  185000       286.4823455895     11762.1979878133         0.7554380051       309.1473031869      -545.6561011489       305.4841001226       300.0997091784         2.4154445497      2353.1803152740     -3109.9963139590      -396.8393563147       -75.8268443795     -2244.2291093850 
  186000       298.1394033621     11399.2004054628         0.7794942687       312.1121865983      -577.4734401744       266.6235765275       308.2228516914        20.3643926594      2338.7244246984     -3110.2210411365      -401.1876446145       136.4406279163     -1056.6987078879 
  187000       302.6769380097     11311.9483353451         0.7855067156       271.4198195234      -631.7048616578       237.9603425982       311.7669105705        12.5054697624      2331.6551516834     -3111.1799006097      -414.4128356626       706.1645000336      2635.2448569022 
  188000       287.9107652043     11751.5498493724         0.7561225113       303.3045894205      -555.7609203060       262.4358643440       322.9511914381         9.7776316093      2357.2857964213     -3108.8467664412      -399.3646376775        34.4972527434     -1568.4478432693 
  189000       299.7254974150     10977.2458172771         0.8094572656       281.0987244786      -613.2194752322       254.2712658442       310.1357535294        14.5877836605      2351.4910617514     -3110.5797116938      -433.1256283238       422.5912744303       883.8209552733 
  190000       301.6266816773     11833.3217851837         0.7508974694       348.1337606192      -551.8571753167       260.0496667546       310.2559256570        15.1092943010      2335.5476165840     -3110.9087808498      -361.9108977636      1099.4815648080      4353.6995766876 
  191000       289.8258315526     11460.1203815164         0.7753506148       285.9690522255      -578.8106149676       264.6615332516       290.7243539692        18.3136587273      2350.9519016366     -3110.4361338377      -393.0259287146       423.4110592205       822.3456875079 
  192000       298.9852767250     11429.6207960791         0.7774196137       318.2427234175      -573.8668125640       282.7981820782       296.6823594438        22.2702416471      2317.9892041521     -3110.5907052945      -383.0160945906        88.0421002338     -1381.0162336391 
  193000       293.5919824562     11426.1799554277         0.7776537231       307.6032065890      -568.4138672478       286.4209064496       302.4340371756        14.8578093274      2343.4769803359     -3110.1087893612      -405.4948111750       353.6182052136       276.1356406271 
  194000       308.1448751467     11611.5376761776         0.7652398529       373.1122200127      -546.3276420212       275.2820440936       317.5787598681         4.9959502145      2360.2422111542     -3111.6702004991      -392.7564068526       341.3931278426      -187.3074812308 
  195000       293.3116810206     11352.4162503195         0.7827066228       298.3808556538      -576.7998573214       271.8541638175       303.6502230233        16.3220441924      2333.6760341772     -3110.5671891329      -391.7351333987       197.6120612469      -608.6419279899 
  196000       313.9850591709     11774.5920940723         0.7546428201       391.9838400008      -544.8819097457       267.1252891844       317.3503712629        11.8798101613      2381.5689786431     -3109.8437801475      -412.9625788499        76.5233548825     -1837.0594316026 
  197000       298.2921209315     11437.3876507331         0.7768916867       309.3372395945      -580.7040644660       263.1419701804       292.1012554774        10.4051996934      2366.4713669688     -3109.9953925221      -402.8284642639       497.0156165945      1125.1528088092 
  198000       293.3455519200     11317.7718144301         0.7851025387       267.6122985459      -607.6694781095       260.1250807652       289.9696205418        11.6361925355      2343.7061888865     -3111.2731227179      -401.8334381205       518.2996151744      1518.7823401694 
  199000       295.8377482616     11425.8810878211         0.7776740643       298.8652030865      -583.8527662342       262.3002922462       319.8376006429         9.8419349033      2346.8587472025     -3110.5160343954      -412.1753068338       432.8541581512       804.0876852889 
  200000       303.2181933769     11771.7630400760         0.7548241800       338.3434908476      -566.3961831514       277.0494493973       291.0526905268         6.8478338984      2345.1932375730     -3110.4854659752      -376.0539285717       275.2128351027      -367.7247823965 
  201000       286.2323289307     11906.0511887975         0.7463105309       312.3035986295      -541.7538082849       279.5469841443       306.6811137545         3.1972418988      2366.3422798446     -3109.9646146993      -387.5568132279       -55.7277596540     -2119.5379145973 
  202000       280.2210434147     11453.9361433140         0.7757692441       268.9275987782      -567.1933893562       261.4184759844       312.4365549017        10.3067895952      2350.4722315318     -3110.9604510675      -390.8669903018       947.0045999047      4059.2740027049 
  203000       290.6384312211     12011.6250798770         0.7397509766       312.2513637063      -554.9529309505       269.5559423467       305.3049194289        14.6587510779      2354.5782373367     -3109.9576894449      -389.0930916958       265.0776617631      -269.2912866012 
  204000       305.9756726719     11447.0499071761         0.7762359259       348.4388355857      -564.5285799304       281.3421836065       292.0276622190         9.1673138355      2360.1570368102     -3110.4158574425      -396.8069189592        49.8268883975     -1788.7008517297 
  205000       283.5515205088     11565.7731244083         0.7682678268       240.0833686340      -605.9750666135       257.8732491792       291.1609528493        12.3420776619      2330.2030845178     -3109.2746552369      -388.2797755847       293.2981469382       315.4871674939 
  206000       293.3232336370     11522.6641427298         0.7711420964       300.4412175143      -574.7739660521       261.2710556344       321.3307236602        11.8917563041      2334.1567198475     -3111.2941745897      -392.1300469086       267.8023711445      -194.2253922604 
  207000       297.2400736984     11644.4712970875         0.7630755538       356.9244311623      -529.9777839795       271.1329027742       338.2136833744         8.1368060061      2366.5536583849     -3108.8596583449      -405.1551761744       -16.1006897905     -2196.5566874053 
  208000       312.1818479436     11258.8415783485         0.7892118671       313.0348735760      -618.4504709917       257.4338198627       314.2730154222         9.6090219325      2323.8228236702     -3110.1605227667      -413.4286291126       137.6629929850     -1068.0469925802 
  209000       294.5017187359     11324.9504005632         0.7846048830       303.4706947977      -575.2608418354       274.7193025745       322.2136557652        22.9467394711      2319.7410492522     -3111.2060210256      -403.6755678727       121.7744661018     -1100.1039273895 
  210000       290.4497891171     11511.9709875890         0.7718583893       276.2950918593      -590.3463342118       265.5901032895       315.4482614650        16.0938091884      2304.0591034524     -3110.7931254912      -380.7444861159       240.0319190053      -215.9932724075 
Loop time of 62.6256 on 64 procs for 100000 steps with 1002 atoms

Performance: 137.963 ns/day, 0.174 hours/ns, 1596.791 timesteps/s
99.3% CPU use with 64 MPI tasks x no OpenMP threads

MPI task timing breakdown:
Section |  min time  |  avg time  |  max time  |%varavg| %total
---------------------------------------------------------------
Pair    | 12.823     | 19.549     | 26.513     |  95.0 | 31.21
Bond    | 0.49337    | 0.53951    | 0.5765     |   2.1 |  0.86
Kspace  | 17.439     | 24.404     | 31.161     |  85.0 | 38.97
Neigh   | 1.6958     | 1.7336     | 1.7462     |   0.9 |  2.77
Comm    | 13.172     | 13.332     | 13.515     |   2.0 | 21.29
Output  | 0.051208   | 0.051243   | 0.051834   |   0.0 |  0.08
Modify  | 2.1479     | 2.2246     | 2.2838     |   2.3 |  3.55
Other   |            | 0.7922     |            |       |  1.26

Nlocal:    15.6562 ave 24 max 8 min
Histogram: 3 3 4 14 6 17 9 1 5 2
Nghost:    4623.75 ave 4778 max 4494 min
Histogram: 6 5 8 11 11 3 7 6 4 3
Neighs:    11681.3 ave 22767 max 3922 min
Histogram: 2 6 13 10 12 10 6 2 2 1

Total # of neighbors = 747602
Ave neighs/atom = 746.11
Ave special neighs/atom = 5
Neighbor list builds = 3840
Dangerous builds = 0
unfix equil
undump equil

# WRITE RESTART FILES, CLEANUP, AND EXIT
write_restart   md-16.end.restart
PPPM initialization ...
WARNING: Using 12-bit tables for long-range coulomb (../kspace.cpp:321)
  G vector (1/distance) = 0.185902
  grid = 8 8 8
  stencil order = 5
  estimated absolute RMS force accuracy = 0.00751438
  estimated relative force accuracy = 2.26293e-05
  using double precision FFTs
  3d grid and FFT values/proc = 343 8
write_data      md-16.end.data pair ii
PPPM initialization ...
WARNING: Using 12-bit tables for long-range coulomb (../kspace.cpp:321)
  G vector (1/distance) = 0.185902
  grid = 8 8 8
  stencil order = 5
  estimated absolute RMS force accuracy = 0.00751438
  estimated relative force accuracy = 2.26293e-05
  using double precision FFTs
  3d grid and FFT values/proc = 343 8
unfix		averages
Total wall time: 0:03:15
