
#===========================================================
# GENERAL PROCEDURES
#===========================================================
units		real	# g/mol, angstroms, fs, kcal/mol, K, atm, charge*angstrom
dimension	3	# 3 dimensional simulation
newton		on	# use Newton's 3rd law
boundary	p p p	# periodic boundary conditions
atom_style	full    # molecular + charge

#===========================================================
# FORCE FIELD DEFINITION
#===========================================================
special_bonds  lj   0.0 0.0 0.0  coul 0.0 0.0 0.0     # NO     1-4 LJ/COUL interactions
pair_style     hybrid lj/cut/coul/long 14.0 14.0 # outer_LJ outer_Coul (cutoff values, see LAMMPS Doc)
kspace_style   pppm 0.0001          # long-range electrostatics sum method
bond_style     harmonic             # parameters needed: k_bond, r0
angle_style    harmonic             # parameters needed: k_theta, theta0
dihedral_style hybrid opls            # parameters needed: V1, V2, V3, V4
pair_modify    shift yes mix arithmetic       # using Lorenz-Berthelot mixing rules

#===========================================================
# SETUP SIMULATIONS
#===========================================================

# READ IN COEFFICIENTS/COORDINATES/TOPOLOGY
read_data ${data_name}
read_data md-21.data
  orthogonal box = (-11.1959 -11.1959 -11.1959) to (11.1959 11.1959 11.1959)
  4 by 4 by 4 MPI processor grid
  reading atoms ...
  1002 atoms
  reading velocities ...
  1002 velocities
  scanning bonds ...
  1 = max bonds/atom
  scanning angles ...
  6 = max angles/atom
  scanning dihedrals ...
  3 = max dihedrals/atom
  reading bonds ...
  835 bonds
  reading angles ...
  1169 angles
  reading dihedrals ...
  501 dihedrals
  4 = max # of 1-2 neighbors
  3 = max # of 1-3 neighbors
  4 = max # of 1-4 neighbors
  5 = max # of special neighbors
include ${settings_name}
include md-21.in.settings
     # Non-bonded interactions (pair-wise)
     pair_coeff           1          1          lj/cut/coul/long     0.007356             2.469415
     pair_coeff           1          2          lj/cut/coul/long     0.001788             2.249079
     pair_coeff           1          3          lj/cut/coul/long     0.025276             3.130326
     pair_coeff           1          4          lj/cut/coul/long     0.034459             2.727159
     pair_coeff           2          2          lj/cut/coul/long     0.001000             1.782699
     pair_coeff           2          3          lj/cut/coul/long     0.003911             3.073871
     pair_coeff           2          4          lj/cut/coul/long     0.006262             2.607178
     pair_coeff           3          3          lj/cut/coul/long     0.204882             3.439275
     pair_coeff           3          4          lj/cut/coul/long     0.179586             3.225220
     pair_coeff           4          4          lj/cut/coul/long     0.202152             2.900987

     # Stretching interactions
     bond_coeff           1           366.904251           1.096103
     bond_coeff           2           612.219900           0.957501
     bond_coeff           3           368.709924           1.411527

     # Bending interactions
     angle_coeff          1           40.926667            108.205025
     angle_coeff          2           61.328715            112.232133
     angle_coeff          3           49.873049            108.741688

     # Dihedral interactions
     dihedral_coeff       1          opls                  0.105414            -0.205941             0.372587            -0.070860

# SET RUN PARAMETERS
timestep	1.0		# fs
run_style	verlet 		# Velocity-Verlet integrator
neigh_modify every 1 delay 0 check no one 10000 # More relaxed rebuild criteria can be used

#===========================================================
# RUN CONSTRAINED RELAXATION
#===========================================================

# SET OUTPUTS
thermo_style    custom step temp vol density etotal pe ebond eangle edihed ecoul elong evdwl enthalpy press
thermo_modify   format float %20.10f
thermo ${thermo_freq}
thermo 1000

# DECLARE RELEVANT OUTPUT VARIABLES
variable        my_step equal   step
variable        my_temp equal   temp
variable        my_rho  equal   density
variable        my_pe   equal   pe
variable        my_ebon equal   ebond
variable        my_eang equal   eangle
variable        my_edih equal   edihed
variable        my_evdw equal   evdwl
variable        my_eel  equal   (ecoul+elong)
variable        my_ent  equal   enthalpy
variable        my_P    equal   press
variable        my_vol  equal   vol

fix  averages all ave/time ${dump4avg} $(v_avg_freq/v_dump4avg) ${avg_freq} v_my_temp v_my_rho v_my_vol v_my_pe v_my_edih v_my_evdw v_my_eel v_my_ent v_my_P file thermo.avg
fix  averages all ave/time 100 $(v_avg_freq/v_dump4avg) ${avg_freq} v_my_temp v_my_rho v_my_vol v_my_pe v_my_edih v_my_evdw v_my_eel v_my_ent v_my_P file thermo.avg
fix  averages all ave/time 100 10 ${avg_freq} v_my_temp v_my_rho v_my_vol v_my_pe v_my_edih v_my_evdw v_my_eel v_my_ent v_my_P file thermo.avg
fix  averages all ave/time 100 10 1000 v_my_temp v_my_rho v_my_vol v_my_pe v_my_edih v_my_evdw v_my_eel v_my_ent v_my_P file thermo.avg

# INITIALIZE VELOCITIES AND CREATE THE CONSTRAINED RELAXATION FIX
velocity        all create ${ANNEAL_TEMP} ${vseed} mom yes rot yes     # DRAW VELOCITIES
velocity        all create 100.0 ${vseed} mom yes rot yes     
velocity        all create 100.0 95452 mom yes rot yes     

fix relax all nve/limit 0.01
run             10000
PPPM initialization ...
WARNING: Using 12-bit tables for long-range coulomb (../kspace.cpp:321)
  G vector (1/distance) = 0.186414
  grid = 8 8 8
  stencil order = 5
  estimated absolute RMS force accuracy = 0.00732983
  estimated relative force accuracy = 2.20736e-05
  using double precision FFTs
  3d grid and FFT values/proc = 343 8
Neighbor list info ...
  update every 1 steps, delay 0 steps, check no
  max neighbors/atom: 10000, page size: 100000
  master list distance cutoff = 16
  ghost atom cutoff = 16
  binsize = 8, bins = 3 3 3
  1 neighbor lists, perpetual/occasional/extra = 1 0 0
  (1) pair lj/cut/coul/long, perpetual
      attributes: half, newton on
      pair build: half/bin/newton
      stencil: half/bin/3d/newton
      bin: standard
Per MPI rank memory allocation (min/avg/max) = 8.561 | 8.653 | 9.16 Mbytes
Step Temp Volume Density TotEng PotEng E_bond E_angle E_dihed E_coul E_long E_vdwl Enthalpy Press 
       0       100.0000000000     11227.1720048708         0.7914380736      -228.4159523678      -526.7950383728       267.3377958912       325.7777174278        15.4198800936      2365.6468011690     -3100.8254563448      -400.1517766096      -697.3463300527     -2863.9280425431 
    1000        24.9848338915     11227.1720048708         0.7914380736     -1366.1638049528     -1440.7133239581         8.7935790412        18.0357528348       -35.5556134016      2076.0036264990     -3102.1038400970      -405.8868288345     -1684.6447022059     -1945.0784510070 
    2000        21.0922926352     11227.1720048708         0.7914380736     -1410.4735872163     -1473.4085771988         8.8380291855        16.7116461836       -37.1477609962      2064.2205820653     -3102.6427869790      -423.3882866579     -1851.5708684968     -2693.9412191329 
    3000        17.6157025746     11227.1720048708         0.7914380736     -1434.5123975599     -1487.0739698952         8.4887111142        17.0026539578       -37.2089324823      2048.4959228873     -3103.3620492513      -420.4902761210     -1755.6205109434     -1961.1238136190 
    4000        15.7380270669     11227.1720048708         0.7914380736     -1449.3781264354     -1496.3371077528         8.2320303885        17.2085628900       -37.5475735835      2040.9623577711     -3103.2105867423      -421.9818984765     -1763.7552677937     -1920.0153240562 
    5000        14.3742046227     11227.1720048708         0.7914380736     -1459.0814664538     -1501.9710868275         8.2958242352        16.4880848687       -37.7097982736      2045.1290394530     -3103.0709432609      -431.1032938499     -1828.7401132792     -2257.6395456365 
    6000        13.6110934088     11227.1720048708         0.7914380736     -1466.8518622293     -1507.4645183378         8.0969897642        17.2611867847       -37.9867680527      2049.5117251252     -3103.0251642987      -441.3224876605     -1810.9748496722     -2101.6840041099 
    7000        13.7861409041     11227.1720048708         0.7914380736     -1474.5375752177     -1515.6725364426         8.0012720958        17.0017199181       -37.1806802260      2036.1728224173     -3102.8367467823      -436.8309238655     -1770.9763762234     -1810.4593677413 
    8000        13.5946072314     11227.1720048708         0.7914380736     -1481.9502150368     -1522.5136798398         8.3568442172        16.0228671840       -38.4136704528      2036.8103878260     -3103.1296386875      -442.1604699267     -1823.5429246741     -2086.2306790367 
    9000        13.2729738319     11227.1720048708         0.7914380736     -1487.6964699775     -1527.3002479829         8.3902813989        16.5234089624       -38.3054592222      2025.5430322944     -3102.5151736195      -436.9363377969     -1789.2218742068     -1841.5251001109 
   10000        12.8981473458     11227.1720048708         0.7914380736     -1493.9288529838     -1532.4142271458         8.1102348991        17.3814825807       -36.4467637687      2031.9608681944     -3102.7275095784      -450.6925394728     -1839.2877334871     -2109.2320516700 
Loop time of 12.3176 on 64 procs for 10000 steps with 1002 atoms

Performance: 70.143 ns/day, 0.342 hours/ns, 811.843 timesteps/s
99.0% CPU use with 64 MPI tasks x no OpenMP threads

MPI task timing breakdown:
Section |  min time  |  avg time  |  max time  |%varavg| %total
---------------------------------------------------------------
Pair    | 0.62788    | 1.9388     | 3.3315     |  47.7 | 15.74
Bond    | 0.013756   | 0.048383   | 0.079516   |   6.0 |  0.39
Kspace  | 1.1397     | 2.54       | 3.8507     |  41.8 | 20.62
Neigh   | 4.3591     | 4.4774     | 4.5716     |   2.9 | 36.35
Comm    | 3.1049     | 3.2077     | 3.3555     |   3.8 | 26.04
Output  | 0.0015113  | 0.0019175  | 0.0019362  |   0.1 |  0.02
Modify  | 0.0087497  | 0.010252   | 0.01149    |   0.5 |  0.08
Other   |            | 0.09319    |            |       |  0.76

Nlocal:    15.6562 ave 25 max 0 min
Histogram: 2 1 1 3 7 10 12 14 11 3
Nghost:    4725.69 ave 5074 max 4346 min
Histogram: 2 4 6 10 6 12 10 6 4 4
Neighs:    11950.8 ave 23114 max 0 min
Histogram: 2 3 2 11 17 8 6 9 3 3

Total # of neighbors = 764854
Ave neighs/atom = 763.327
Ave special neighs/atom = 5
Neighbor list builds = 10000
Dangerous builds not checked
unfix relax

#===========================================================
# RUN RAMPED ANNEAL
#===========================================================

# REINITIALIZE THE VELOCITIES AND CREATE THE ANNEALING FIX
velocity        all create ${ANNEAL_TEMP} ${vseed} mom yes rot yes     # DRAW VELOCITIES
velocity        all create 100.0 ${vseed} mom yes rot yes     
velocity        all create 100.0 95452 mom yes rot yes     

fix mom all momentum 1000 linear 1 1 1 angular # Zero out system linear and angular momentum every ps
fix anneal all npt temp ${ANNEAL_TEMP} ${FINAL_TEMP} 100.0 iso ${pressure} ${pressure} 1000.0 # NPT, nose-hoover 100 fs T relaxation
fix anneal all npt temp 100.0 ${FINAL_TEMP} 100.0 iso ${pressure} ${pressure} 1000.0 
fix anneal all npt temp 100.0 298.0 100.0 iso ${pressure} ${pressure} 1000.0 
fix anneal all npt temp 100.0 298.0 100.0 iso 1.0 ${pressure} 1000.0 
fix anneal all npt temp 100.0 298.0 100.0 iso 1.0 1.0 1000.0 

# CREATE COORDINATE DUMPS FOR ANNEAL
dump anneal all custom ${coords_freq} anneal.lammpstrj id type x y z mol
dump anneal all custom 1000 anneal.lammpstrj id type x y z mol
dump_modify anneal sort id format float %20.10g

# RUN RAMPED ANNEAL
run ${nSteps_ramp}
run 50000
PPPM initialization ...
WARNING: Using 12-bit tables for long-range coulomb (../kspace.cpp:321)
  G vector (1/distance) = 0.186414
  grid = 8 8 8
  stencil order = 5
  estimated absolute RMS force accuracy = 0.00732983
  estimated relative force accuracy = 2.20736e-05
  using double precision FFTs
  3d grid and FFT values/proc = 343 8
Per MPI rank memory allocation (min/avg/max) = 9.832 | 10.36 | 10.55 Mbytes
Step Temp Volume Density TotEng PotEng E_bond E_angle E_dihed E_coul E_long E_vdwl Enthalpy Press 
   10000       100.0000000000     11227.1720048708         0.7914380736     -1234.0351411408     -1532.4142271458         8.1102348991        17.3814825807       -36.4467637687      2031.9608681944     -3102.7275095784      -450.6925394728     -1406.1315470820     -1051.0552236546 
   11000        89.5182695417      9973.8408654314         0.8908916338      -999.5235172537     -1266.6273117196       110.3118207145       105.3418076454       -21.6502900348      2097.7937899384     -3102.9943244408      -455.4301155424     -1555.2657080675     -3820.6305561585 
   12000       114.0629559219      9659.9225242692         0.9198429243      -939.5487154229     -1279.8887207729        82.8314806060       111.8692234243       -15.2241879107      2114.9278192956     -3103.4983616654      -470.7946945228      -999.5546262003      -425.9361482767 
   13000       104.4899711671      9732.2110453671         0.9130105525      -970.6687244386     -1282.4449453739        90.6911889658       111.2293542011       -12.3811807407      2097.9234993991     -3103.4429194145      -466.4648877846     -1127.9858192785     -1108.3795650642 
   14000       114.8106631638      9685.5268024492         0.9174112637      -921.9661163271     -1264.5371237116        89.7574805523       119.3424274836       -15.9592589798      2113.4544197557     -3103.2063216343      -467.9258708891     -1229.9803653204     -2180.5782258065 
   15000       120.4621972693      9597.0141236188         0.9258724921      -910.3414843476     -1269.7754875412        90.4209694625       126.5822281857       -19.0189603997      2121.4475301807     -3102.5765836992      -486.6306712712      -993.8403111945      -596.5795337488 
   16000       125.8471372531      9530.1206987313         0.9323713376      -861.4242583037     -1236.9257962030        98.5031511263       129.1089604520       -11.4508512243      2126.4916716211     -3103.1826014118      -476.3961267663      -821.6910357374       285.8771866948 
   17000       123.6975265565      9583.9586482707         0.9271337356      -874.8417678067     -1243.9293169567        93.9343950563       137.0640537049       -10.9132130959      2101.4850454750     -3101.7756255862      -463.7239725109      -944.8541493328      -500.9034583520 
   18000       131.0240260685      9482.1229679117         0.9370909251      -835.9895442071     -1226.9378356371       103.7716112050       133.5359856175        -3.6882293907      2140.2506287675     -3101.9959286500      -498.8119031864      -728.4824636542       777.4197972046 
   19000       129.3077628185      9459.1485751604         0.9393669328      -807.8259367150     -1193.6532575464       102.5885465903       148.2202781728       -10.0422657246      2141.6348808447     -3103.2138209863      -472.8408764433      -904.7676277450      -702.7205512769 
   20000       141.2354945807      9665.4188631152         0.9193198463      -786.1366976601     -1207.5538755047       103.4368131464       141.5160815420        -9.6082498643      2132.5796481056     -3102.9510869045      -472.5270815298      -569.2406443948      1538.7039923241 
   21000       145.0287298792      9607.0097874598         0.9249091632      -742.9626580701     -1175.6980567283       117.2888133310       152.1979981060        -4.1257169144      2148.6765667563     -3103.6251235451      -486.1105944622      -959.7964538445     -1547.6147129660 
   22000       145.1760596108      9447.6880558724         0.9405064319      -775.1407626564     -1208.3157624211       105.5604113188       151.8087836818       -12.9107158870      2135.7394002280     -3103.1432189089      -485.3704228539      -714.9502042541       436.8445659089 
   23000       142.2105001457      9484.3314796680         0.9368727150      -740.1005046459     -1164.4268951837       117.3288167500       160.0882427584        -8.8591278417      2170.1667485333     -3103.3440873947      -499.8074879891      -871.6279480894      -950.8976299760 
   24000       152.4602393497      9704.1536845134         0.9156503156      -691.9554693116     -1146.8649380043       121.2991276198       167.7257222772        -4.8972301320      2166.1988103987     -3103.5973591615      -493.5940090064      -649.4160911603       300.5782708876 
   25000       162.0268268045      9721.9510262365         0.9139740943      -638.9466477023     -1122.4008126044       134.3195494235       174.8262819407        -1.2413306848      2145.7667037399     -3102.7688160690      -473.3032009546      -666.3451862862      -193.2404677767 
   26000       164.5712365515      9689.1780213238         0.9170655513      -662.0378806995     -1153.0840321490       119.4399366169       163.6420049705        -4.8275921310      2138.3513697979     -3103.3963717607      -466.2933796426      -500.5887696500      1142.5437352335 
   27000       169.0845974800      9750.4957693505         0.9112984195      -596.3730833636     -1100.8861598996       134.8436063711       178.6155715346        -4.8867530742      2148.6358362555     -3102.9587285850      -455.1356924016      -646.1062822639      -349.7387929948 
   28000       182.6256909036      9748.9423416502         0.9114436287      -554.3944444671     -1099.3113117955       143.7468285746       178.3462386124         1.3171527991      2135.9306878007     -3102.3158551873      -456.3363643951      -442.6362284634       786.0425742661 
   29000       177.7292118846      9977.5840602859         0.8905574065      -520.8693142200     -1051.1761122052       147.1395601720       199.1211808249        -1.7661108377      2159.8075118649     -3102.7400942522      -452.7381599771      -484.2504593343       251.6537894797 
   30000       174.9229776348      9969.5042742421         0.8912791588      -512.5581750953     -1034.4917569746       146.3813749780       208.6724885944        -9.4481673668      2187.4955151042     -3102.6350893057      -464.9578789787      -369.3304744674       985.0937565195 
   31000       180.2587485554      9798.1267702166         0.9068683833      -483.9243348542     -1021.7787412377       155.6943518710       214.6973940868        -2.8566653180      2156.7696690961     -3102.6507992565      -443.4326917169      -128.9072039512      2484.4506031357 
   32000       187.0993651691      9922.7426673751         0.8954793731      -495.4044287821     -1053.6698044947       152.1144981399       192.7685531949        -1.0769195867      2170.4016425328     -3103.1624388744      -464.7151399012      -477.2936733129       125.1494509740 
   33000       201.5989006295     10233.9176898831         0.8682512067      -399.1459571720     -1000.6749142664       155.2300258744       209.7911119574         1.9612185776      2162.5090053603     -3102.2358464740      -427.9304295622      -607.1489263242     -1393.6436018201 
   34000       191.4108602872     10140.2653184899         0.8762701078      -429.2460250220     -1000.3760004613       159.6974233156       217.7748418641         0.2881037784      2155.9782360576     -3102.8544672466      -431.2601382305      -525.1119177777      -648.2446082388 
   35000       199.5924491363     10174.4852240458         0.8733229434      -394.1437754810      -989.6859009489       166.7189131052       224.3741894180        -1.1528736986      2172.3366469960     -3102.8196056574      -449.1431711120      -353.5861511170       273.3280315971 
   36000       204.7104664740     10122.0231306443         0.8778493458      -305.0106228915      -915.8238417131       185.7080595651       243.5157835693         0.7105081761      2185.0266504594     -3101.2070884525      -429.5777550305       176.6817336046      3263.0711248384 
   37000       204.7126949356     10248.3650676213         0.8670272112      -350.7455630812      -961.5654311663       173.6126083608       220.3045867975         3.6028906638      2184.6907074593     -3103.6442368402      -440.1319876074      -289.5308631264       409.5672746730 
   38000       205.3106641530     10125.8591473785         0.8775167869      -329.1542492875      -941.7583324579       182.0095653122       240.3694291383         4.3177675828      2172.8051998886     -3102.8748370845      -438.3854572953      -788.1594967525     -3108.2066062022 
   39000       207.8030011536     10298.0568234640         0.8628434991      -321.7781925316      -941.8188880648       189.5919036624       214.2598754261         0.2125295912      2172.7196116415     -3102.6628642963      -415.9399440897      -189.4907631310       880.8204803994 
   40000       212.6624158574     10411.8567261538         0.8534127598      -280.9218463117      -915.4620190232       171.0716418754       233.5981624611         7.5820507068      2186.4281490110     -3102.7309264756      -411.4110966019       302.6174139759      3842.9612719975 
   41000       215.8193936301     10266.2105873728         0.8655200775      -227.7193845513      -871.6793186865       183.2025891439       257.1219896616        12.4196511534      2210.7990129211     -3101.9964835245      -433.2260780419      -707.9828155589     -3207.6979101868 
   42000       223.5660368530     10164.2835310806         0.8741994806      -217.0886320347      -884.1629294144       185.7374071091       249.9021401253         4.1944364532      2226.5214250150     -3103.1503121527      -447.3680259643      -477.7782921044     -1758.6165068309 
   43000       242.4882500669     10418.1693136301         0.8528956591      -104.4191148582      -827.9533390773       210.6193569215       264.7386819533        -4.8587878039      2228.7440383592     -3102.5339494934      -424.6626790139      -386.4243843738     -1856.0510748310 
   44000       236.2083277710     10462.4445767361         0.8492863516      -145.1736555252      -849.9699049960       187.5120159901       247.2973615534         4.2572815892      2247.4025077338     -3102.0063217557      -434.4327501068      -317.4204968027     -1128.8655159440 
   45000       237.8191712495     10525.7913514584         0.8441751396      -109.7221380088      -819.3248075276       210.7137856513       249.4744900813        14.3785276072      2237.5101384093     -3101.4122340228      -429.9895152539      -313.0841246983     -1324.7658663324 
   46000       249.8506962334     10450.4933708583         0.8502575973       -57.8296593878      -803.3318831862       209.0342697505       264.8020132524         7.0294639818      2238.5469470256     -3102.4254189282      -420.3191582684       106.8567111026      1080.5502664706 
   47000       245.6090098545     10529.5999231573         0.8438698002       -56.8969706629      -789.7428894127       210.0676167004       268.4242264957         4.1907275728      2268.1665632016     -3101.8222284414      -438.7697949417       -20.4531719004       237.3208418136 
   48000       246.9988083189     10454.2908202656         0.8499487470       -50.6161504691      -787.6089371741       224.3553956498       252.5152768838         9.3164043741      2266.4307971970     -3101.7896465647      -438.4371647140      -558.5421493301     -3331.4245105636 
   49000       253.4983285851     10690.3893852448         0.8311775244       -26.7567466633      -783.1427425333       208.5382216625       260.6638149223         8.8401958696      2252.4346802059     -3101.7134066954      -411.9062484983       176.7146232014      1305.0702670155 
   50000       262.2507363986     10838.3995051544         0.8198268923        42.0984250220      -740.4029252855       221.9352794402       272.3904055792         1.5675249440      2262.5472673172     -3102.4928724444      -396.3505301218       -79.2672253773      -767.8117308158 
   51000       270.2430198632     10741.5901405425         0.8272156419        98.4420523591      -707.9066003011       243.5578158534       281.6918029863         1.6192213511      2270.8187133618     -3102.3772820455      -403.2168718082       115.7829830493       110.6949824464 
   52000       276.9785398619     10733.8039906811         0.8278156925       125.1898440410      -701.2561916289       232.5290992064       285.0127221995        15.3867483391      2263.7305737604     -3101.7241699468      -396.1911651875        94.3788215640      -196.8233235495 
   53000       260.9503596703     11111.3291237206         0.7996893337       115.2704045407      -663.3508935703       237.3122677382       306.1632131024        13.1936512257      2284.5208135269     -3101.9976768957      -402.5431622679      -231.0302409049     -2137.0338424218 
   54000       276.7567406224     10683.0655185622         0.8317473452       165.2205666556      -660.5636664708       235.6322727070       294.8107673005         9.3434549818      2306.8402089776     -3102.3835359545      -404.8068344833       218.1454685266       339.6943161131 
   55000       269.9969591072     10827.5496983440         0.8206484044       112.6098475193      -693.0046113061       244.4065796882       285.9994327784         8.9363267246      2257.5967132526     -3101.8985981881      -388.0450655618       114.9067582878        14.5458146285 
   56000       283.8254843029     10985.8771747569         0.8088212932       206.3364994768      -640.5393864356       252.9534954046       301.0346894907         5.3142284051      2284.5376809284     -3101.5715375399      -382.8079431246      -113.2261953990     -1994.5523814071 
   57000       293.2211482703     11365.0376397567         0.7818373916       246.9532108262      -627.9573713561       244.1960581196       297.6250182704         6.0131690670      2331.9436004865     -3100.9415990281      -406.7936182715       308.9281342629       373.9118518122 
   58000       285.9205084251     11228.8829958928         0.7913174789       277.4159615082      -575.7110382315       268.8862995219       324.7985190634        17.0741187411      2304.8615925349     -3100.7069824068      -390.6245856860       616.9061245221      2073.0737326650 
   59000       299.4536983546     10917.8871153051         0.8138581476       311.1743407815      -582.3328673770       264.5363762641       315.6537812425        15.4361924430      2340.6159198235     -3101.5707748409      -417.0043623092       524.4086218697      1339.1910470836 
   60000       307.7932582532     11233.6917221422         0.7909787453       394.4280146828      -523.9626960783       271.8658356313       331.4663183267        15.5528278752      2345.4502694512     -3099.7727603826      -388.5251869800       566.3849564378      1049.5939568244 
Loop time of 67.3691 on 64 procs for 50000 steps with 1002 atoms

Performance: 64.124 ns/day, 0.374 hours/ns, 742.180 timesteps/s
99.3% CPU use with 64 MPI tasks x no OpenMP threads

MPI task timing breakdown:
Section |  min time  |  avg time  |  max time  |%varavg| %total
---------------------------------------------------------------
Pair    | 7.2726     | 11.641     | 15.749     |  69.9 | 17.28
Bond    | 0.23006    | 0.28184    | 0.33002    |   4.6 |  0.42
Kspace  | 8.514      | 12.655     | 17.078     |  67.4 | 18.78
Neigh   | 23.103     | 23.298     | 23.517     |   2.3 | 34.58
Comm    | 17.337     | 17.584     | 17.802     |   2.9 | 26.10
Output  | 0.030522   | 0.03057    | 0.030982   |   0.0 |  0.05
Modify  | 1.1016     | 1.1803     | 1.2294     |   2.3 |  1.75
Other   |            | 0.6978     |            |       |  1.04

Nlocal:    15.6562 ave 22 max 7 min
Histogram: 1 1 4 2 13 6 18 9 8 2
Nghost:    4769.84 ave 4867 max 4669 min
Histogram: 2 4 6 11 11 7 8 7 5 3
Neighs:    11981.5 ave 20440 max 5031 min
Histogram: 2 4 11 14 11 10 2 2 3 5

Total # of neighbors = 766815
Ave neighs/atom = 765.284
Ave special neighs/atom = 5
Neighbor list builds = 50000
Dangerous builds not checked
unfix anneal

# RUN EQUILIBRATION PHASE AT FINAL TEMP
fix anneal all npt temp ${FINAL_TEMP} ${FINAL_TEMP} 100.0 iso ${pressure} ${pressure} 1000.0 # NPT, nose-hoover 100 fs T relaxation
fix anneal all npt temp 298.0 ${FINAL_TEMP} 100.0 iso ${pressure} ${pressure} 1000.0 
fix anneal all npt temp 298.0 298.0 100.0 iso ${pressure} ${pressure} 1000.0 
fix anneal all npt temp 298.0 298.0 100.0 iso 1.0 ${pressure} 1000.0 
fix anneal all npt temp 298.0 298.0 100.0 iso 1.0 1.0 1000.0 
run ${nSteps_ramp}
run 50000
PPPM initialization ...
WARNING: Using 12-bit tables for long-range coulomb (../kspace.cpp:321)
  G vector (1/distance) = 0.186402
  grid = 8 8 8
  stencil order = 5
  estimated absolute RMS force accuracy = 0.00733406
  estimated relative force accuracy = 2.20863e-05
  using double precision FFTs
  3d grid and FFT values/proc = 343 8
Per MPI rank memory allocation (min/avg/max) = 10.54 | 10.55 | 10.55 Mbytes
Step Temp Volume Density TotEng PotEng E_bond E_angle E_dihed E_coul E_long E_vdwl Enthalpy Press 
   60000       307.7932582532     11233.6917221422         0.7909787453       394.4280190160      -523.9626917450       271.8658356313       331.4663183267        15.5528278752      2345.2539574426     -3099.5764440408      -388.5251869800       566.3849465062      1049.5938697547 
   61000       294.9928436954     11459.4213323012         0.7753979129       309.0418556259      -571.1550951726       276.3763555524       303.6336831132        14.8605780859      2314.2702778622     -3101.5866185296      -378.7093712567       162.1394382246      -879.0030167130 
   62000       298.1511574194     11082.6243726849         0.8017605835       322.9278970051      -566.6928014163       270.2160726655       333.0671936200        16.6513346285      2304.3734685169     -3101.6340573512      -389.3668134961        31.4559205815     -1803.3428516754 
   63000       291.8943011223     11163.5083863108         0.7959515124       320.1483368639      -550.8032109253       278.0450027036       315.7363431359        20.8673902230      2347.0674996136     -3099.7998147042      -412.7196318971       -63.2776883085     -2355.0763707997 
   64000       276.1774759701     11233.1168593691         0.7910192242       184.6537134048      -639.4021151466       250.0127015378       302.4386177653         5.4317381238      2303.6731065722     -3100.9131307668      -400.0451483790       436.6350303346      1538.1269266398 
   65000       299.4393154528     11596.3788465832         0.7662401773       333.4485474872      -560.0157451005       283.2668033020       307.1534514231        18.4605670161      2301.9207003780     -3100.2319058000      -370.5853614197      -205.9906623218     -3189.6587801074 
   66000       313.0980042210     11412.2042547530         0.7786060594       385.1808467719      -549.0381165227       298.1547733423       315.2109311445        21.3944298754      2297.5383830092     -3101.5073450600      -379.8292888340       366.6705418114      -111.2162246644 
   67000       295.3116676405     11371.6347054790         0.7813838216       341.9391918412      -539.2090629308       290.5173491582       317.3488764110        12.5517540457      2335.6103543952     -3098.6392377207      -396.5981592202       -11.0491533183     -2128.4408062632 
   68000       298.6951379730     11225.2710772224         0.7915720986       307.7032243062      -583.5405983189       282.0901289253       317.8495204862         9.3901228233      2293.4356564688     -3101.8151849340      -384.4908420885       207.4516175343      -612.3766393045 
   69000       284.9008462841     11588.8124221669         0.7667404614       245.1320695563      -604.9524716066       241.6136484469       329.7201911259         4.5486075951      2308.7265728871     -3101.1614834540      -388.4000082077       223.0950944581      -130.3878601908 
   70000       303.8939577796     11482.4175413702         0.7738449984       371.3811840841      -535.3748295631       265.0649977604       339.3488019639         9.4399770007      2343.3402034565     -3100.8891744892      -391.6796352553       409.8881837791       229.9484342888 
   71000       288.6371271237     11367.1242278321         0.7816938749       295.4707789479      -565.7620428348       256.0763512940       333.4025573282        16.0982004775      2323.6858384821     -3100.6399355489      -394.3850548677       185.9035134831      -660.9282680673 
   72000       294.6382439423     10926.8618293013         0.8131896900       355.6136640038      -523.5252352924       277.7922799421       345.1972573894        14.9910896897      2348.1701303475     -3101.3764886127      -408.2995040483        79.6006808309     -1732.0410078612 
   73000       283.6922029431     11435.1271161788         0.7770452653       330.4833823700      -515.9948198391       263.1432410941       353.8096851089        12.2166713791      2331.4932926298     -3101.1485481197      -375.5091619312       789.0603859587      2749.7637736829 
   74000       299.8137518166     10969.7933708763         0.8100071791       310.7432642587      -583.8382681290       281.9102949693       321.1302149932        16.6053268290      2305.9618418166     -3100.7704409053      -408.6755058317      -235.1408842117     -3412.1345378855 
   75000       307.1100721244     10901.5919142741         0.8150746656       362.1828498451      -554.1693763890       271.3210000302       322.4336747989        12.2131055022      2331.2885259987     -3099.7292042671      -391.6964784518       731.4723485673      2322.7429354028 
   76000       296.8235031715     11208.1951423191         0.7927780763       311.5480524800      -574.1112033312       258.1682143420       313.8227262212        18.3967214209      2362.2789557764     -3101.0339303867      -425.7438907050       691.1472549477      2322.2753813588 
   77000       298.2418470349     11556.3207293898         0.7688962250       373.5699363321      -516.3213609352       276.2597503549       320.8098145460        18.9815302040      2363.8709845717     -3101.1605514366      -395.0828891752       273.5768716005      -593.3000753606 
   78000       283.3210580774     11480.8144377385         0.7739530529       280.6778521289      -564.6929314221       289.0544497607       315.0927866725         7.3655720355      2296.1316800053     -3100.0401602011      -372.2972596951      -169.0188884989     -2685.7844365255 
   79000       285.2977306643     10906.3217426196         0.8147211859       263.7491479004      -587.5196132488       255.5297182244       320.7930216096        14.2966709239      2327.2849511775     -3101.0562172506      -404.3677579336       469.9267736472      1296.2457315627 
   80000       296.2488641414     11484.0099441861         0.7737376950       371.3578307997      -512.5868223257       269.8352616556       332.2709807648         7.1602643953      2372.4954062991     -3101.0811239086      -393.2676115320        81.0588546787     -1733.3092504692 
   81000       287.3951096371     11535.1154877591         0.7703097028       310.6218407086      -546.9050606496       268.0696665999       313.8955761225         6.8579459702      2356.7693930185     -3101.4385339288      -391.0591084320       269.1904927604      -246.2811805512 
   82000       287.8620411161     10880.4357818123         0.8166595127       277.1574167858      -581.7627104517       267.9671307875       313.8943674858        16.9523236880      2323.7457340820     -3101.4999071301      -402.8223593650       130.9854980101      -921.1742056057 
   83000       284.9497089878     11320.9923739268         0.7848791952       291.4262528360      -558.8040844156       268.5870381826       332.6191098062        11.8237334399      2312.8336867020     -3100.5610484772      -384.1066040691        46.3026059512     -1484.6525278668 
   84000       304.9017214442     11011.9735989665         0.8069045302       348.8154142181      -560.9475554407       280.4106470088       341.3984573113        14.1035276123      2305.3886709556     -3100.5924123822      -401.6564459464       590.9063994287      1507.4314329300 
   85000       297.1145113459     10828.7299047907         0.8205589632       282.7766294114      -603.7509339308       240.3709496822       331.1306663695         8.7397387051      2316.2973234356     -3099.3905433301      -400.8990687932       347.9672750784       412.7925699057 
   86000       295.6163549241     11211.1058422705         0.7925722501       342.4939972514      -539.5633806523       284.2704634835       319.9265923691        12.8105776514      2346.8775536992     -3101.5818471500      -401.8667207055        11.2568075816     -2025.8848149551 
   87000       290.2092886226     11288.1988566820         0.7871593596       297.8820594370      -568.0417634566       276.1522308083       311.6689688830        13.6930214094      2346.8658712613     -3100.2917658881      -416.1300899305        20.2161986309     -1686.6382508681 
   88000       295.1304862262     10804.3658256920         0.8224093415       287.7701842574      -592.8374630665       242.0593819828       342.6587515768         9.6077656945      2333.9965963826     -3100.9421459220      -420.2178127811       297.9651900332        64.7011956315 
   89000       281.8789449245     11214.9764922544         0.7922987079       301.7733856489      -539.2944338573       281.1110601582       337.6742412223        10.6184431509      2307.9150621721     -3101.7406879190      -374.8725526418       522.3325369132      1348.4996091059 
   90000       301.6745329013     11245.6513935388         0.7901375450       302.1371260874      -597.9965878934       252.1553259324       314.1050930280        10.8777334995      2318.2872970370     -3098.8071883404      -394.6148490499       423.2076854259       738.2068024779 
   91000       312.7894679986     11314.5319058318         0.7853273523       401.8461515582      -531.4522041759       288.8988604661       321.7087419840         8.8385783342      2340.1482117846     -3101.9636136810      -389.0829830638       466.0209776049       388.9127841562 
   92000       296.6743520062     11158.8879403759         0.7962810838       327.4609768416      -557.7532430858       259.7271786841       339.7727188840        14.7799756986      2323.9847262018     -3102.0195015161      -393.9983410382       478.8859016826       930.4661130502 
   93000       286.4230107224     11456.8114400291         0.7755745506       240.1403814345      -614.4859800670       245.3974852095       297.3549276940         9.5396838485      2308.7244851788     -3100.5392322057      -374.9633297921       243.3346587327        19.1175819340 
   94000       305.9945321760     11265.0481128042         0.7887770469       314.8254528904      -598.1982354416       247.2024163922       314.1480913290         3.8509999881      2337.8104655477     -3101.0357474309      -400.1744612678       -96.0950180246     -2501.2024005182 
   95000       302.6992737003     11024.7631398477         0.8059684613       300.5077311060      -602.6835951046       252.8177899770       315.5134952731        14.4377450720      2312.7004556172     -3101.4878299053      -396.6652511386       246.7944330929      -334.0693729622 
   96000       299.7730128390     11247.5737778719         0.7900024982       346.2542017103      -548.2057740883       262.1005493089       335.7891423140        13.8178434306      2345.1911188848     -3100.6823962679      -404.4220317586       543.2787893281      1201.1180327229 
   97000       288.4387041591     11387.3849603520         0.7803030647       295.2777828785      -565.3629862761       257.6672001616       324.0959816834        13.8518158986      2336.1331163083     -3101.2270303140      -395.8840700141       151.7447810918      -864.2748503693 
   98000       305.4868091779     11174.3113114644         0.7951820149       337.6588165741      -573.8499325168       257.1270876720       312.7345458644        13.5460231892      2344.8702194136     -3101.1863673149      -400.9414413411       789.4813459568      2772.4979050188 
   99000       297.8821196227     11248.3990014845         0.7899445408       411.2961867297      -477.5217591729       279.1054546154       337.7011020915        13.3366362352      2396.6772178678     -3100.9133219572      -403.4288480255       651.5950297258      1464.8227528561 
  100000       297.1993470237     11638.6950977778         0.7634542626       315.8280994629      -570.9525957992       254.1920545616       313.8716929018        12.9733326095      2321.7802916014     -3102.0083353438      -371.7616321297       -50.2342107617     -2156.6259956521 
  101000       308.7451755251     11326.1880625433         0.7845191458       317.4954643029      -603.7355685135       252.3862740794       299.1006066271         5.2955870935      2337.7734425506     -3101.2747699628      -397.0167089013       845.2759543751      3195.1678245442 
  102000       306.3060508311     11347.9220981477         0.7830166005       367.7907082834      -546.1624865643       251.2414030714       310.9404307720        30.1472460273      2342.4369673323     -3100.9106454240      -380.0178883432       326.2849524646      -250.7933932980 
  103000       302.1147772138     11538.5729931882         0.7700788814       333.6344786489      -567.8128322876       251.7527774638       317.9088183495        17.4361900718      2343.2235980436     -3100.3417326876      -397.7924835287       324.1527532381       -56.3455189191 
  104000       285.0976899454     11144.5837857916         0.7973031164       293.7690763836      -556.9028050969       251.4790636832       341.2130904377        11.1009423439      2325.9742919863     -3100.7971085253      -385.8730850227       397.4747070573       638.0615784804 
  105000       302.5997052993     11424.3855139760         0.7777758701       411.6194241302      -491.2748107958       282.1991198935       350.0991588188         9.2588981048      2356.7355290566     -3100.6643882938      -388.9031283757       944.7401617058      3199.7558148287 
  106000       294.3003596812     11439.2632092931         0.7767643091       301.6325077275      -576.4982155986       242.8078435395       303.0934098200        12.6648488675      2357.8431206065     -3100.0202953786      -392.8871430534      -151.9952031492     -2719.1028448079 
  107000       295.9796651597     11224.3185401737         0.7916392743       331.6944385573      -551.4469811068       264.8200056381       321.4841182595        14.8937524715      2338.6394587180     -3100.2310397676      -391.0532764261       110.0218372953     -1354.1792192606 
  108000       302.4560718768     11291.9423217556         0.7868984033       345.8950957357      -556.5705670970       256.4998301331       338.6338004456        17.6913910145      2318.8421063898     -3101.6430484684      -386.5946466116       567.3709590841      1344.8748211628 
  109000       302.0031955621     11414.9468935197         0.7784189858       310.1609249104      -590.9534497138       260.3458852219       317.0144229641         8.9099469773      2326.6240585090     -3101.9254554678      -401.9223079183       -51.9530569820     -2175.1815421752 
  110000       302.5699643269     11968.3688397510         0.7424245946       345.6880149015      -557.1174791827       262.0550180931       317.3218699339         5.8216964069      2334.2747042784     -3100.1667949148      -376.4239729802       -33.9942776251     -2175.2515610692 
Loop time of 62.7421 on 64 procs for 50000 steps with 1002 atoms

Performance: 68.853 ns/day, 0.349 hours/ns, 796.913 timesteps/s
99.3% CPU use with 64 MPI tasks x no OpenMP threads

MPI task timing breakdown:
Section |  min time  |  avg time  |  max time  |%varavg| %total
---------------------------------------------------------------
Pair    | 7.0632     | 10.553     | 14.207     |  65.7 | 16.82
Bond    | 0.25856    | 0.28127    | 0.30141    |   1.9 |  0.45
Kspace  | 8.8673     | 12.543     | 16.064     |  60.3 | 19.99
Neigh   | 21.809     | 21.968     | 22.141     |   1.6 | 35.01
Comm    | 15.484     | 15.687     | 15.889     |   2.2 | 25.00
Output  | 0.028617   | 0.028673   | 0.029087   |   0.0 |  0.05
Modify  | 1.0977     | 1.1627     | 1.1973     |   1.9 |  1.85
Other   |            | 0.5178     |            |       |  0.83

Nlocal:    15.6562 ave 26 max 5 min
Histogram: 1 2 7 5 17 11 12 6 2 1
Nghost:    4500.41 ave 4601 max 4404 min
Histogram: 2 1 12 7 10 14 8 7 1 2
Neighs:    11228.6 ave 19167 max 4039 min
Histogram: 3 7 8 4 6 13 13 6 3 1

Total # of neighbors = 718633
Ave neighs/atom = 717.199
Ave special neighs/atom = 5
Neighbor list builds = 50000
Dangerous builds not checked
unfix anneal
undump anneal

# RETURN TO LESS FREQUENT NEIGHBOR BUILDS
neigh_modify every 1 delay 10 check yes one 10000 # More relaxed rebuild criteria can be used

#===========================================================
# RUN EQUILIBRIUM SIM
#===========================================================

# UPDATE RUN PARAMETERS AND CREATE FIX
fix equil all npt temp ${FINAL_TEMP} ${FINAL_TEMP} 100.0 iso ${pressure} ${pressure} 1000.0 # NPT, nose-hoover 100 fs T relaxation
fix equil all npt temp 298.0 ${FINAL_TEMP} 100.0 iso ${pressure} ${pressure} 1000.0 
fix equil all npt temp 298.0 298.0 100.0 iso ${pressure} ${pressure} 1000.0 
fix equil all npt temp 298.0 298.0 100.0 iso 1.0 ${pressure} 1000.0 
fix equil all npt temp 298.0 298.0 100.0 iso 1.0 1.0 1000.0 

# CREATE COORDINATE DUMPS FOR EQUILIBRIUM
dump equil all custom ${coords_freq} equil.lammpstrj id type x y z mol
dump equil all custom 1000 equil.lammpstrj id type x y z mol
dump_modify equil sort id format float %20.10g

# RUN EQUIL
run		${nSteps_equil}
run		100000
PPPM initialization ...
WARNING: Using 12-bit tables for long-range coulomb (../kspace.cpp:321)
  G vector (1/distance) = 0.185104
  grid = 8 8 8
  stencil order = 5
  estimated absolute RMS force accuracy = 0.00780971
  estimated relative force accuracy = 2.35187e-05
  using double precision FFTs
  3d grid and FFT values/proc = 343 8
Per MPI rank memory allocation (min/avg/max) = 11.04 | 11.05 | 11.05 Mbytes
Step Temp Volume Density TotEng PotEng E_bond E_angle E_dihed E_coul E_long E_vdwl Enthalpy Press 
  110000       302.5699643269     11968.3688397510         0.7424245946       345.6819310642      -557.1235630200       262.0550180931       317.3218699339         5.8216964069      2312.7691892747     -3078.6673637484      -376.4239729802       -34.0312888923     -2175.4287485269 
  111000       309.2251693965     11338.0239313967         0.7837001789       365.5945597654      -557.0686743774       246.6079962031       330.9366565535         5.4260822154      2327.0697153771     -3079.6371192137      -387.4720055129       694.4968812805      1989.0865474065 
  112000       304.7877002423     11510.6239991839         0.7719487131       312.8737537157      -596.5490005230       246.5728441078       326.0914001725         1.4583899131      2281.6477382935     -3080.0642301748      -372.2551428350       236.8631362411      -452.7927907100 
  113000       303.6040382113     11395.7253623001         0.7797319698       328.1995992482      -577.6913550409       249.4663231726       331.9931192103         6.8991420870      2330.1338727905     -3079.2140322956      -416.9697800058       410.6912000859       496.3543908284 
  114000       308.8982395059     11145.0790342925         0.7972676870       358.7967562510      -562.8909874721       250.0673353091       333.9150220800        11.7326274936      2334.2628223317     -3079.0667240570      -413.8020706294       319.4794025171      -241.8940789237 
  115000       291.8018048067     11153.4247121951         0.7966711224       285.8579942051      -584.8175639233       259.2271394257       314.3772325979        19.1441851618      2288.0401147039     -3079.6564537599      -385.9497820526       259.7009941469      -160.8065756864 
  116000       282.4450810482     11856.3380409954         0.7494397809       334.0091312874      -508.7479200103       250.0874773285       353.7319057780        14.9189360825      2335.3355623462     -3078.3709104649      -384.4508910806       252.2446969385      -472.8658753902 
  117000       292.9091243861     11448.3046284625         0.7761508513       330.8388608545      -543.1407073140       278.9257103240       312.5436761936        14.0719163548      2318.1790534428     -3079.1350715886      -387.7259920406       456.3084230295       751.4867299818 
  118000       282.0532843638     11138.6407698048         0.7977285171       273.2906029482      -568.2974089835       273.7362115396       314.4533083144         3.4640955459      2312.9481676276     -3079.8893781314      -393.0098138796       335.7225349378       384.3250456124 
  119000       297.8685185167     11798.9933699343         0.7530821575       356.6510793537      -532.1262836931       268.4776375331       317.0556068486        13.2787399266      2306.3971267446     -3077.8812205565      -359.4541741895       655.8159606346      1738.5603237444 
  120000       296.1571582465     11330.3855957578         0.7842285074       314.6074205262      -569.0636013881       266.2948486395       305.9301540823        11.3716343237      2321.6447605065     -3080.2665412538      -394.0384576865       156.4045621788      -957.4007127709 
  121000       297.3745892372     11234.4142614424         0.7909278737       320.0988860036      -567.2046953735       259.2103868235       306.6848873680        11.0484948692      2324.2411639302     -3076.2111994515      -392.1784289129       702.7967919836      2335.7683120991 
  122000       315.5497129344     11312.8889152057         0.7854414067       365.7855182109      -575.7488311342       253.5220254777       310.5157222287        11.6538328579      2332.7990150221     -3079.9098561916      -404.3295705288       399.5393729246       204.5850830154 
  123000       289.8952980784     11834.3197128139         0.7508341501       359.5844020391      -505.4025387388       276.4992096698       332.2848743750        14.9998569225      2326.9460506911     -3080.0643056112      -376.0682247859       298.3325193292      -354.8953057804 
  124000       301.4400985301     11167.3429660959         0.7956782030       301.0259143589      -598.4082964879       248.3891011281       311.6428158515        13.4905571635      2311.5336422939     -3079.9869583565      -403.4774545683       400.4614226047       610.5422942445 
  125000       296.4501746400     11364.0903792671         0.7819025621       305.3125163847      -579.2328051664       261.9030225785       295.5930498825        11.2636338404      2332.7153041343     -3079.4680308972      -401.2397847049       612.8057353910      1855.3462658983 
  126000       295.0938137824     11373.8986222219         0.7812282911       330.4214822097      -550.0767422117       261.6372752660       313.7351569149        22.4526206100      2319.6860495075     -3079.4127357797      -388.1751087304       291.0112694969      -237.5874720079 
  127000       303.7873502057     11015.7556319186         0.8066274962       359.3614553531      -547.0764635895       261.4426439240       317.3563738617         9.0374258139      2348.9838858549     -3079.8551872256      -404.0416058184       517.7979085622       986.1998430041 
  128000       292.7184392342     11342.2191630767         0.7834103059       348.4365450138      -524.9740585412       265.0251693173       343.8214373965         8.0839981591      2318.7078367703     -3079.9646849180      -380.6478152665        82.4731113769     -1607.8591702589 
  129000       309.6440457766     10913.1549887750         0.8142110501       293.9396350701      -629.9734385872       246.5810480252       299.3069422916        21.3041836267      2276.4651320885     -3079.1052329069      -394.5255117123       321.9446360843       175.9581471713 
  130000       286.7770191696     11859.0658432157         0.7492673960       291.2642455058      -564.4184031647       259.4255417582       315.4816553708         9.9046721302      2301.7292679198     -3079.8443474339      -371.1151929097       570.2731155343      1613.2127303887 
  131000       300.5889701983     11617.2343631586         0.7648646060       349.4486712540      -547.4459506554       257.0721445147       333.9972341548         8.1024076684      2303.9425010641     -3078.0484613107      -372.5117767468      -158.5022047853     -2998.0790073690 
  132000       307.0038222762     11295.6965945890         0.7866368673       379.4650934329      -536.5701054753       291.6577949986       313.8414877387         6.7762935308      2331.9811316551     -3079.6620491445      -401.1647642539      -117.8118267811     -3018.6266025850 
  133000       277.4032748089     11703.1505504135         0.7592495154       308.5737765528      -519.1395793699       263.1876820548       322.5164887981        17.7347624310      2338.1741649361     -3079.2610111176      -381.4916664723       376.8276699462       399.8975547146 
  134000       303.7678390314     11346.1312038898         0.7831401932       342.0829869645      -564.2967147145       247.6191532553       334.8259075363         8.2157668105      2331.5705396099     -3080.0442189459      -406.4838629805       567.5936407400      1362.8352975244 
  135000       296.3761058119     11206.8321407552         0.7928744958       287.3188721673      -597.0054434915       259.5442960227       307.5981180116         7.6945487279      2308.1884251676     -3080.3456579959      -399.6851734254      -328.8089188309     -3769.7455922951 
  136000       288.4972712763     11453.8125632336         0.7757776142       325.4579528694      -535.3575683142       262.3956435067       330.9000925929        10.7624665510      2332.8232888539     -3078.7477445061      -393.4913153126       352.7283303836       163.2545104328 
  137000       295.7868444092     10806.5733841205         0.8222413403       274.6272784083      -607.9388044629       242.9007434075       338.2595820740         8.7131905896      2278.5012901075     -3078.9322178634      -397.3813927782       496.1381519160      1405.5009818379 
  138000       307.9590574189     10859.4193718836         0.8182400071       315.4766988540      -603.4087219420       248.2268196821       307.9061353424        17.6735526465      2313.1153912884     -3079.3661261974      -410.9644947040       596.8106141257      1776.3952192389 
  139000       290.6097445546     11207.5894462017         0.7928209207       318.8497982406      -548.2689014027       283.1986972848       337.2842230691        23.4594067359      2291.8725783900     -3079.9193490954      -404.1644577872       315.9095889547       -17.9883008273 
  140000       294.2977433845     11123.7064898793         0.7987995181       302.3284756359      -575.7944412081       262.0026017915       332.9078100788        14.5261301965      2293.4868027969     -3079.6811051646      -399.0366809071       133.0975728486     -1043.1680109236 
  141000       297.0737704199     11210.4318212575         0.7926199031       360.2349570081      -526.1710439314       265.7979592015       342.3686925261        16.4031973935      2329.1434095113     -3079.7103189963      -400.1739835675       208.5096612349      -928.0251833694 
  142000       293.9133307798     11053.8067335011         0.8038507998       273.1611585192      -603.8147515084       241.9187386462       323.4345575491        11.0255966747      2307.8453919566     -3079.5576493386      -408.4813869964       246.7635311063      -163.7484275873 
  143000       306.4376420437     11426.7809083201         0.7776128251       331.4428986656      -582.9029368397       265.8680557143       309.8225123977        10.0822252152      2296.9893074609     -3078.9202754815      -386.7447621464       336.9455049398        33.0193598369 
  144000       297.1733617110     11084.6682095556         0.8016127516       304.4240127036      -582.2791478199       277.7733813456       292.1121616452        10.6036152595      2312.0562409262     -3080.3002949830      -394.5242520135       433.4656644181       798.2360283388 
  145000       308.3611415697     11462.6868128962         0.7751770181       386.9079231820      -533.1772326282       281.4566601558       310.0424365160        17.3040964000      2325.5499692436     -3079.7549352075      -387.7754597360       538.6490546075       907.6972128775 
  146000       281.8219963111     11336.2524599646         0.7838226446       287.1472612800      -553.7506354742       271.7959005627       317.8547024741        15.3144993644      2297.5833269035     -3080.8099480683      -375.4891167106       257.8037987673      -177.4867595987 
  147000       300.7208956782     11482.1067507333         0.7738659443       304.4851758326      -592.8030841180       253.6539212888       305.4790526797        16.7847166619      2296.9407217757     -3080.2733449513      -385.3881515728      -126.2766852382     -2572.4075465674 
  148000       290.4375186807     11336.4166265146         0.7838112938       300.5063986791      -566.0984149761       258.4490013994       312.6433561573        14.3815947253      2324.8605587664     -3079.1889263547      -397.2439996699       524.7387196024      1356.2711519902 
  149000       300.5932451588     11536.8755568272         0.7701921842       380.7898250463      -516.1175524514       286.2455530800       334.7043390280         6.5459623209      2323.3785808383     -3080.4420560357      -386.5499316829       468.4454609211       520.9736369387 
  150000       293.4253280321     11083.4494792768         0.8017008965       261.5666499140      -613.9531619752       264.1374661583       305.0797101720        15.4325746004      2276.3969346021     -3078.3908135464      -396.6090339616       478.8651719263      1344.3301441563 
  151000       311.6452944968     11461.2441589268         0.7752745915       379.9567438075      -549.9276374895       271.4141149247       308.9360132815         8.5271211002      2313.7654161910     -3079.3559040642      -373.2143989227       783.4950412336      2414.2214459987 
  152000       295.3711023699     11239.4403112545         0.7905741867       269.4780111733      -611.8475844008       255.9912247792       294.6557948168        10.0933575637      2291.3284823680     -3080.7964891181      -383.1199548104       563.2165258984      1792.0095504209 
  153000       295.0986267852     11034.4751600004         0.8052590862       284.0088721908      -596.5037132243       269.7600107126       315.8566518670        12.3624123902      2307.3742487774     -3079.9043173154      -421.9527196561       330.5148444345       288.9888969389 
  154000       286.1791954036     11348.9485645472         0.7829457798       295.8556701895      -558.0431973923       263.3595384888       327.4456423475        13.1563036391      2311.1804624377     -3080.0671533270      -393.1179909784      -195.3856083902     -2967.9961683860 
  155000       303.2766728977     11315.3340404709         0.7852716810       347.1023674763      -557.8117971823       270.5200057643       322.8356919030        12.8135899109      2312.3380637626     -3080.5660987745      -395.7530497485       261.8458562773      -516.6355514062 
  156000       286.4469682758     11463.5577971985         0.7751181213       313.0865142944      -541.6113315359       270.4223510632       318.9326965471        15.3494911726      2304.7467210545     -3078.9573158965      -372.1052754769       614.4841328227      1802.7873503902 
  157000       298.1013574943     11441.0700185823         0.7766416401       331.1490881694      -558.3230176905       270.6193333708       329.7525768870        10.6522915669      2295.1840064201     -3078.5843738317      -385.9468521035       847.2808241775      3093.2714345599 
  158000       302.2241629835     11405.1749969696         0.7790859313       376.0092229941      -525.7644722022       276.6138877142       352.2019720395        11.5087600938      2306.5550964021     -3079.9621913704      -392.6819970814       314.4107401558      -370.3327950473 
  159000       302.1913090080     11002.3028748045         0.8076137773       343.3700754565      -558.3055903481       275.4429491226       309.5556523580         9.3396726143      2312.7082627186     -3079.1016980344      -386.2504291273       459.0701665962       721.0646675593 
  160000       284.6734828747     11106.4828669628         0.8000382740       267.4384975030      -581.9676387970       270.9208333257       290.9774584822        16.5360188759      2305.5414207331     -3079.9348429461      -386.0085272679       358.2113192101       560.4067988117 
  161000       293.9837923265     11544.0919887481         0.7697107224       314.9427077346      -562.2434448119       258.0695341439       317.2495259375        13.5640014905      2316.3408324071     -3077.0659662945      -390.4013724965       260.9654982305      -320.6082995034 
  162000       313.0762811724     11656.6677465347         0.7622771427       389.7863904138      -544.3677558469       264.8906574569       319.0700017489        22.9779653467      2324.8679432848     -3078.7051404468      -397.4691832374       328.4849835352      -360.5953603839 
  163000       294.6186056896     11112.2262606802         0.7996247714       302.0251712505      -577.0551316067       253.9576930498       310.8029133012        11.1437426775      2317.7164702419     -3079.3020685509      -391.3738823262       270.4900829211      -194.5884625551 
  164000       284.3536104638     11880.6823144051         0.7479041311       325.6381666270      -522.8135372972       258.1301148274       346.6451835921        14.1217596528      2317.1018837764     -3080.8253547582      -377.9871243877       352.9807998862       157.8058376531 
  165000       290.3678016440     11487.6240030238         0.7734942736       349.2883632427      -517.1084293554       287.1457017796       340.6186505984        11.5589639958      2296.5943023956     -3079.9240953725      -373.1019527523       644.7113146431      1763.3484110220 
  166000       283.7461981774     11520.2820956556         0.7713015454       270.6864760241      -575.9528366715       265.9340625853       304.8446132721        11.8438057561      2311.5037817582     -3080.0630894407      -390.0160106025       577.3473181590      1825.2372392582 
  167000       299.9162588495     11436.1386257052         0.7769765368       341.6937286535      -553.1936632821       256.5074196909       311.8114837124        12.2393089510      2339.1032960570     -3079.7752808118      -393.0798908815       255.3879265470      -517.4694229785 
  168000       312.0599794327     11689.3632760849         0.7601450288       377.1263435253      -553.9953708935       267.4756898332       316.9434583234         7.9356305322      2312.4396685326     -3078.7712541441      -380.0185639708       158.6740744178     -1281.4150345122 
  169000       297.0804954721     11247.2175809211         0.7900275174       280.5896259031      -605.8364411858       267.1597347826       301.9061084813         7.9472787979      2299.6799547267     -3080.4387286436      -402.0907893307        83.4684483346     -1201.7449303845 
  170000       305.0418852080     11083.8573450796         0.8016713953       306.1356534871      -604.0455355289       244.7978978253       312.6841302849        15.3762812977      2305.5844263653     -3079.2626776689      -403.2255936332       601.6720431928      1828.2860547585 
  171000       309.9174942830     11481.8227380502         0.7738850866       367.1028298235      -557.6261569878       259.4347424621       312.6564534185        13.6190145150      2311.2539532614     -3078.9924179220      -375.5979027228       778.4469415973      2456.5101210320 
  172000       284.5595957409     11310.1322470026         0.7856328458       268.6017190827      -580.4646018285       263.0678516341       308.3812274430         5.2066671831      2309.2774836083     -3078.0636048241      -388.3342268729        74.1902925250     -1178.6319634314 
  173000       305.2191042446     11495.3788936634         0.7729724671       313.1521088652      -597.5578646926       247.6824041030       301.3849550984         8.7080793444      2304.8011321896     -3079.8335409373      -380.3008944907       228.0721876227      -507.4904795995 
  174000       302.4092459172     11332.5619914966         0.7840778979       323.7151236993      -578.6108202631       273.6239662847       289.2802957147         8.9989325541      2309.3991706555     -3078.6816453286      -381.2315401434       387.6260907268       386.6975281919 
  175000       317.6107939485     11798.5257457560         0.7531120053       434.5733583716      -513.1108256652       262.4826939862       344.0857235080         6.8684422457      2327.2153580727     -3079.4898344411      -374.2732090367       226.4282161759     -1209.6581215190 
  176000       300.0110088420     11046.0507102330         0.8044152265       357.4572886708      -537.7128174265       267.6660065648       319.1759353509         9.8314697919      2332.6820694028     -3080.1606306819      -386.9076678549       474.5341287841       726.7550702389 
  177000       291.2315024169     11521.8328445813         0.7711977342       312.1133820077      -556.8605130625       268.4601895327       308.1213159775        11.4150377591      2319.2607318777     -3080.5915494767      -383.5262387326      -160.3516000263     -2811.7206175502 
  178000       303.6868670043     11289.1935778498         0.7870900009       341.1757061193      -564.9623919653       281.6921662784       287.5684944818        13.2114497802      2335.6906765914     -3079.6383717880      -403.4868073090       616.7587679108      1673.8391114996 
  179000       297.7907384618     11308.3986669079         0.7857532835       271.2502540375      -617.2950295924       232.2866385940       313.6999901858        14.1600565053      2292.8487171192     -3077.7911834162      -392.4992485805       381.4351438909       668.1054919214 
  180000       290.0211953630     11330.1993371381         0.7842413994       353.3366849316      -512.0259070135       277.3319462440       337.1797049024         7.8942177186      2348.2801680605     -3078.9457904388      -403.7661535000       630.0583422673      1674.6718107147 
  181000       302.7243440180     11833.4004492665         0.7508924778       338.7472892015      -564.5188415939       245.8089126927       324.8490033335         7.1520434144      2316.4700661654     -3077.9424342476      -380.8564329522       -50.1283491052     -2253.3325281368 
  182000       298.5207609862     11273.3040910581         0.7881993878       339.0212618169      -551.7022563488       254.2024993938       337.6943595303         8.1491406726      2326.6031984528     -3078.9335407414      -399.4179136571       -82.1999215959     -2562.0234030543 
  183000       298.2021820713     11154.8642289092         0.7965683133       275.0860047610      -614.6869405502       262.7240069576       297.3938918604         7.9751979022      2293.0602715348     -3079.2768490197      -396.5634597856       848.7433019873      3526.2438714452 
  184000       286.5936345394     11246.3872242246         0.7900858477       251.1149911525      -604.0204761348       253.9087135242       311.2343871696         6.2576776333      2282.4345780521     -3079.3022093539      -378.5536231600       382.6619356020       802.0322703783 
  185000       309.6827039084     11641.6126173489         0.7632629323       364.8354991601      -559.1929222774       264.9238681724       315.6307488292        11.5046027145      2315.0146510685     -3078.7767045926      -387.4900884693       425.5670245878       357.7051200709 
  186000       308.9851952049     11058.9371165567         0.8034778831       339.3215414493      -582.6256598939       269.6449585254       295.5962899466         8.2740646126      2319.0458384135     -3078.6389445352      -396.5478668568      1092.7790971410      4671.6415708887 
  187000       305.9080605092     11458.2537281050         0.7754769265       334.1879463275      -578.5777286353       247.5983966014       306.9301746488        12.4282847426      2296.9086852166     -3078.0726058785      -364.3706639664       301.2571268427      -197.0644175204 
  188000       297.4356165494     11282.2802206328         0.7875723001       311.2086890747      -576.2769850388       279.3096438235       300.0051878343         9.0246799514      2328.4076673575     -3078.7997651608      -414.2243988448       529.7712076742      1328.3206218693 
  189000       305.8279969516     11696.1477294202         0.7597040999       441.0331774365      -471.4936046152       304.4566596922       338.5805982617         8.1466651706      2326.5756181932     -3079.1304565727      -370.1226893602       328.6668830181      -658.7449890288 
  190000       309.3839188540     11196.2907628261         0.7936209921       393.9123524859      -529.2245568372       277.4797954411       311.0289053592        17.0119176345      2341.9947267184     -3079.4384421691      -397.3014598213       609.6717896240      1321.3557006733 
  191000       298.8114495903     11437.6631611732         0.7768729729       344.8122403089      -546.7786318569       267.3564255011       309.7224304880         8.9938570044      2338.6444749245     -3080.1234625128      -391.3723572621        88.5938455077     -1536.0208617616 
  192000       282.7934962766     11357.3485088964         0.7823667097       352.4672268797      -491.3294225920       300.8952943525       332.9520356869         9.9362768090      2331.1526580445     -3079.7688647275      -386.4968227575        79.4135184561     -1648.5238594035 
  193000       300.1721965786     11314.3757496025         0.7853381910       343.4124055310      -552.2386510613       266.7828632412       317.7779421597        16.9197140717      2334.1586512342     -3079.7768782396      -408.1009435285       328.7824249437       -88.6619467611 
  194000       301.8281971323     11434.6086611790         0.7770804972       320.8667194157      -579.7254964931       238.7625520317       310.4149348715        13.6080582957      2327.6011305956     -3079.7881766811      -390.3239956066       333.1371174331        73.5802831917 
  195000       291.4920008358     11551.2722146442         0.7692322732       307.5031370879      -562.2480307836       271.7613383998       306.0554831117         5.1888984325      2319.4970950611     -3080.0969778457      -384.6538679429      -129.6408692783     -2594.8892110150 
  196000       308.8797316311     11456.7860214305         0.7755762713       368.9075479063      -552.7249721893       250.0153623597       333.3882463807         8.4388732576      2297.3677317864     -3078.7188100062      -363.2163759676       689.2740115124      1917.3807198232 
  197000       294.5124604095     11643.0587043480         0.7631681338       287.6795186589      -591.0840688819       240.3616657442       315.7038011626        14.0486290766      2275.5324988057     -3079.8919511096      -356.8387125615       394.5113303285       629.1549483498 
  198000       316.7080106722     11538.4993179131         0.7700837985       375.6753286167      -569.3151389316       258.2664238188       319.8322776682        12.7935256530      2299.9117127981     -3078.7859122605      -381.3331666092       579.0575381075      1208.6143405440 
  199000       309.3874161435     11344.9674020823         0.7832205302       368.1889300473      -554.9584144561       260.6786836718       317.8883834235         6.7286251755      2333.0581248567     -3077.9956463209      -395.3165852627       651.0694815539      1709.7158910809 
  200000       303.5458965365     11270.1880809407         0.7884173112       332.3714442693      -573.3460274220       260.3896763986       321.1669185619         5.4650669407      2324.1558221310     -3079.7154732066      -404.8080382478       211.4005536085      -735.9932393477 
  201000       297.9943828574     11541.5184124469         0.7698823557       364.0789972459      -525.0739186703       283.7732930693       331.8619499473        16.8266896760      2297.1735626619     -3079.2325259180      -375.4768881068      -206.0674365284     -3387.2525160679 
  202000       301.5271331947     11293.2326480910         0.7868084950       307.0204411099      -592.6734629736       245.0220029169       327.5739536164        14.9144612227      2286.6165717530     -3079.2609609779      -387.5394915045       332.8716390606       156.9591032585 
  203000       302.0365617202     11607.1965299920         0.7655260562       332.6146860603      -568.5992462014       259.2837320539       316.4715170382         8.8778169867      2310.3983990770     -3078.8595420439      -384.7711693133       406.5827928282       436.9595904167 
  204000       290.9192158124     11781.1989081248         0.7542196217       284.4402811465      -583.6018160073       252.6203866125       289.4285003322        12.0240097512      2332.0089815674     -3078.7504188022      -390.9332754685       156.6361594766      -743.8399200042 
  205000       304.0648183624     11377.3412735740         0.7809919005       316.0150219809      -591.2508039116       254.4829886291       304.6606657219         9.6380283917      2299.7202374525     -3080.1695351195      -379.5831889873       711.6383266941      2384.3235681305 
  206000       288.2841605854     11586.6098718762         0.7668862145       329.9026537340      -530.2769897181       276.7295667928       314.8806552182         9.6093767253      2313.3890519011     -3078.7702805329      -366.1153598226       147.1556092001     -1081.4789941305 
  207000       296.5585575247     11216.7245560010         0.7921752325       289.6200785910      -595.2486348207       264.2744845087       306.7575969614         6.1302810623      2314.6910173946     -3080.2437650892      -406.8582496585       447.9745164072       968.0288354295 
  208000       293.8704718352     11877.1492065679         0.7481266109       357.8752266014      -518.9728012990       274.5603113348       317.0700287498        12.3946248169      2309.7467363348     -3078.7205224139      -354.0239801214       802.6386964190      2567.6806483517 
  209000       297.0424426415     11096.6918492941         0.8007441771       318.1468852632      -568.1656401375       270.5206470874       315.1984415245        18.2981514253      2321.6058918368     -3080.9536158688      -412.8351561427        20.9690477319     -1836.3142429647 
  210000       285.2820268081     11565.9221903695         0.7682579251       297.1428093490      -554.0790947777       272.7479019579       307.6458415272        12.0556130525      2306.4019814591     -3079.4610381868      -373.4693945877       476.6073160064      1063.9529272037 
Loop time of 63.0595 on 64 procs for 100000 steps with 1002 atoms

Performance: 137.013 ns/day, 0.175 hours/ns, 1585.803 timesteps/s
99.2% CPU use with 64 MPI tasks x no OpenMP threads

MPI task timing breakdown:
Section |  min time  |  avg time  |  max time  |%varavg| %total
---------------------------------------------------------------
Pair    | 12.547     | 19.288     | 26.417     |  95.5 | 30.59
Bond    | 0.49454    | 0.53211    | 0.56584    |   2.2 |  0.84
Kspace  | 17.994     | 25.199     | 31.948     |  83.5 | 39.96
Neigh   | 1.6693     | 1.6828     | 1.6964     |   0.5 |  2.67
Comm    | 13.088     | 13.252     | 13.362     |   1.7 | 21.01
Output  | 0.04866    | 0.048709   | 0.049252   |   0.0 |  0.08
Modify  | 2.1393     | 2.2629     | 2.323      |   2.4 |  3.59
Other   |            | 0.7934     |            |       |  1.26

Nlocal:    15.6562 ave 22 max 6 min
Histogram: 2 0 3 4 5 12 20 4 11 3
Nghost:    4608.09 ave 4727 max 4503 min
Histogram: 4 4 9 10 6 11 8 8 2 2
Neighs:    11626.1 ave 20665 max 4650 min
Histogram: 6 4 8 13 10 6 8 3 4 2

Total # of neighbors = 744073
Ave neighs/atom = 742.588
Ave special neighs/atom = 5
Neighbor list builds = 3847
Dangerous builds = 0
unfix equil
undump equil

# WRITE RESTART FILES, CLEANUP, AND EXIT
write_restart   md-21.end.restart
PPPM initialization ...
WARNING: Using 12-bit tables for long-range coulomb (../kspace.cpp:321)
  G vector (1/distance) = 0.185806
  grid = 8 8 8
  stencil order = 5
  estimated absolute RMS force accuracy = 0.00754932
  estimated relative force accuracy = 2.27346e-05
  using double precision FFTs
  3d grid and FFT values/proc = 343 8
write_data      md-21.end.data pair ii
PPPM initialization ...
WARNING: Using 12-bit tables for long-range coulomb (../kspace.cpp:321)
  G vector (1/distance) = 0.185806
  grid = 8 8 8
  stencil order = 5
  estimated absolute RMS force accuracy = 0.00754932
  estimated relative force accuracy = 2.27346e-05
  using double precision FFTs
  3d grid and FFT values/proc = 343 8
unfix		averages
Total wall time: 0:03:25
