
#===========================================================
# GENERAL PROCEDURES
#===========================================================
units		real	# g/mol, angstroms, fs, kcal/mol, K, atm, charge*angstrom
dimension	3	# 3 dimensional simulation
newton		on	# use Newton's 3rd law
boundary	p p p	# periodic boundary conditions
atom_style	full    # molecular + charge

#===========================================================
# FORCE FIELD DEFINITION
#===========================================================
special_bonds  lj   0.0 0.0 0.0  coul 0.0 0.0 0.0     # NO     1-4 LJ/COUL interactions
pair_style     hybrid lj/cut/coul/long 14.0 14.0 # outer_LJ outer_Coul (cutoff values, see LAMMPS Doc)
kspace_style   pppm 0.0001          # long-range electrostatics sum method
bond_style     harmonic             # parameters needed: k_bond, r0
angle_style    harmonic             # parameters needed: k_theta, theta0
dihedral_style hybrid opls            # parameters needed: V1, V2, V3, V4
pair_modify    shift yes mix arithmetic       # using Lorenz-Berthelot mixing rules

#===========================================================
# SETUP SIMULATIONS
#===========================================================

# READ IN COEFFICIENTS/COORDINATES/TOPOLOGY
read_data ${data_name}
read_data md-9.data
  orthogonal box = (-11.0165 -11.0165 -11.0165) to (11.0165 11.0165 11.0165)
  4 by 4 by 4 MPI processor grid
  reading atoms ...
  1002 atoms
  reading velocities ...
  1002 velocities
  scanning bonds ...
  1 = max bonds/atom
  scanning angles ...
  6 = max angles/atom
  scanning dihedrals ...
  3 = max dihedrals/atom
  reading bonds ...
  835 bonds
  reading angles ...
  1169 angles
  reading dihedrals ...
  501 dihedrals
  4 = max # of 1-2 neighbors
  3 = max # of 1-3 neighbors
  4 = max # of 1-4 neighbors
  5 = max # of special neighbors
include ${settings_name}
include md-9.in.settings
     # Non-bonded interactions (pair-wise)
     pair_coeff           1          1          lj/cut/coul/long     0.011399             2.467585
     pair_coeff           1          2          lj/cut/coul/long     0.002199             2.245978
     pair_coeff           1          3          lj/cut/coul/long     0.031335             3.122188
     pair_coeff           1          4          lj/cut/coul/long     0.042220             2.725219
     pair_coeff           2          2          lj/cut/coul/long     0.001000             1.772100
     pair_coeff           2          3          lj/cut/coul/long     0.003842             3.064913
     pair_coeff           2          4          lj/cut/coul/long     0.006076             2.604661
     pair_coeff           3          3          lj/cut/coul/long     0.201254             3.429453
     pair_coeff           3          4          lj/cut/coul/long     0.175724             3.217857
     pair_coeff           4          4          lj/cut/coul/long     0.195849             2.898955

     # Stretching interactions
     bond_coeff           1           366.904251           1.096103
     bond_coeff           2           612.219900           0.957501
     bond_coeff           3           368.709924           1.411527

     # Bending interactions
     angle_coeff          1           40.926667            108.205025
     angle_coeff          2           61.328715            112.232133
     angle_coeff          3           49.873049            108.741688

     # Dihedral interactions
     dihedral_coeff       1          opls                  0.105414            -0.205941             0.372587            -0.070860

# SET RUN PARAMETERS
timestep	1.0		# fs
run_style	verlet 		# Velocity-Verlet integrator
neigh_modify every 1 delay 0 check no one 10000 # More relaxed rebuild criteria can be used

#===========================================================
# RUN CONSTRAINED RELAXATION
#===========================================================

# SET OUTPUTS
thermo_style    custom step temp vol density etotal pe ebond eangle edihed ecoul elong evdwl enthalpy press
thermo_modify   format float %20.10f
thermo ${thermo_freq}
thermo 1000

# DECLARE RELEVANT OUTPUT VARIABLES
variable        my_step equal   step
variable        my_temp equal   temp
variable        my_rho  equal   density
variable        my_pe   equal   pe
variable        my_ebon equal   ebond
variable        my_eang equal   eangle
variable        my_edih equal   edihed
variable        my_evdw equal   evdwl
variable        my_eel  equal   (ecoul+elong)
variable        my_ent  equal   enthalpy
variable        my_P    equal   press
variable        my_vol  equal   vol

fix  averages all ave/time ${dump4avg} $(v_avg_freq/v_dump4avg) ${avg_freq} v_my_temp v_my_rho v_my_vol v_my_pe v_my_edih v_my_evdw v_my_eel v_my_ent v_my_P file thermo.avg
fix  averages all ave/time 100 $(v_avg_freq/v_dump4avg) ${avg_freq} v_my_temp v_my_rho v_my_vol v_my_pe v_my_edih v_my_evdw v_my_eel v_my_ent v_my_P file thermo.avg
fix  averages all ave/time 100 10 ${avg_freq} v_my_temp v_my_rho v_my_vol v_my_pe v_my_edih v_my_evdw v_my_eel v_my_ent v_my_P file thermo.avg
fix  averages all ave/time 100 10 1000 v_my_temp v_my_rho v_my_vol v_my_pe v_my_edih v_my_evdw v_my_eel v_my_ent v_my_P file thermo.avg

# INITIALIZE VELOCITIES AND CREATE THE CONSTRAINED RELAXATION FIX
velocity        all create ${ANNEAL_TEMP} ${vseed} mom yes rot yes     # DRAW VELOCITIES
velocity        all create 100.0 ${vseed} mom yes rot yes     
velocity        all create 100.0 65358 mom yes rot yes     

fix relax all nve/limit 0.01
run             10000
PPPM initialization ...
WARNING: Using 12-bit tables for long-range coulomb (../kspace.cpp:321)
  G vector (1/distance) = 0.187402
  grid = 8 8 8
  stencil order = 5
  estimated absolute RMS force accuracy = 0.00698511
  estimated relative force accuracy = 2.10354e-05
  using double precision FFTs
  3d grid and FFT values/proc = 343 8
Neighbor list info ...
  update every 1 steps, delay 0 steps, check no
  max neighbors/atom: 10000, page size: 100000
  master list distance cutoff = 16
  ghost atom cutoff = 16
  binsize = 8, bins = 3 3 3
  1 neighbor lists, perpetual/occasional/extra = 1 0 0
  (1) pair lj/cut/coul/long, perpetual
      attributes: half, newton on
      pair build: half/bin/newton
      stencil: half/bin/3d/newton
      bin: standard
Per MPI rank memory allocation (min/avg/max) = 8.564 | 8.689 | 9.164 Mbytes
Step Temp Volume Density TotEng PotEng E_bond E_angle E_dihed E_coul E_long E_vdwl Enthalpy Press 
       0       100.0000000000     10695.9790036771         0.8307431588      -361.5076479714      -659.8867339764       256.5094836910       304.3643699012        10.4504741816      2318.1110796254     -3117.7380962450      -431.5840451307      -371.0868229622       -61.4089505876 
    1000        23.8129986188     10695.9790036771         0.8307431588     -1437.9391085240     -1508.9921161531         8.8635172368        17.6804377767       -35.4736897890      2080.8206954300     -3119.8326604647      -461.0504163428     -1872.7138793990     -2787.1985267210 
    2000        19.0623969025     10695.9790036771         0.8307431588     -1481.6512870413     -1538.5294926894         9.2324455568        17.0917671332       -36.8515135988      2066.0892430392     -3120.5415805638      -473.5498542560     -1970.6857306698     -3135.0395011517 
    3000        16.6533815885     10695.9790036771         0.8307431588     -1504.4717548923     -1554.1619626649         9.1192684471        17.3704251832       -37.3993813331      2053.8588610126     -3120.1520462689      -476.9590897058     -1936.1474108858     -2767.3311171784 
    4000        15.5307617848     10695.9790036771         0.8307431588     -1517.6508134456     -1563.9913585086         8.3950276166        16.7903500830       -37.0619204542      2045.7847738099     -3120.2937712247      -477.6058183393     -1941.1084423552     -2714.6480396052 
    5000        13.4298228843     10695.9790036771         0.8307431588     -1527.5999979113     -1567.6717806856         8.5174772138        17.4824954347       -38.5005944083      2035.6483082062     -3120.3273661111      -470.4921010209     -1998.4560776107     -3018.5039692959 
    6000        12.9810872934     10695.9790036771         0.8307431588     -1533.9512223980     -1572.6840720175         8.9569616330        17.1758498208       -36.8181450338      2039.2992795657     -3120.1927665503      -481.1052514527     -2035.1833022662     -3213.2345484132 
    7000        12.9699714594     10695.9790036771         0.8307431588     -1540.0511121858     -1578.7507944814         8.7208204676        16.9005722446       -37.1073840015      2027.5360731188     -3120.4568914963      -474.3439848145     -1968.9027358162     -2749.2271714822 
    8000        12.9807518803     10695.9790036771         0.8307431588     -1544.9788045019     -1583.7106533188         8.6779579517        17.3081110376       -37.2745554738      2036.6788886888     -3120.4928024788      -488.6082530442     -2000.1300979079     -2917.8257327653 
    9000        12.3947888020     10695.9790036771         0.8307431588     -1549.8574271378     -1586.8408846774         8.8131326790        17.4433896776       -38.2659160509      2035.7121680185     -3120.4639910928      -490.0796679087     -1967.4967610755     -2677.3488579136 
   10000        12.1781399990     10695.9790036771         0.8307431588     -1554.6012137668     -1590.9382365881         8.5538743831        17.2378895490       -38.4342882195      2035.7238115635     -3120.4990886034      -493.5204352608     -1981.7810572647     -2738.5099371011 
Loop time of 12.6007 on 64 procs for 10000 steps with 1002 atoms

Performance: 68.567 ns/day, 0.350 hours/ns, 793.605 timesteps/s
99.0% CPU use with 64 MPI tasks x no OpenMP threads

MPI task timing breakdown:
Section |  min time  |  avg time  |  max time  |%varavg| %total
---------------------------------------------------------------
Pair    | 0.5509     | 2.0289     | 3.35       |  40.4 | 16.10
Bond    | 0.011951   | 0.048486   | 0.074546   |   4.6 |  0.38
Kspace  | 1.1733     | 2.4903     | 3.9878     |  36.6 | 19.76
Neigh   | 4.513      | 4.5953     | 4.7056     |   2.5 | 36.47
Comm    | 3.2081     | 3.3232     | 3.4237     |   3.2 | 26.37
Output  | 0.002084   | 0.0020998  | 0.0027213  |   0.2 |  0.02
Modify  | 0.007899   | 0.0099536  | 0.011168   |   0.6 |  0.08
Other   |            | 0.1025     |            |       |  0.81

Nlocal:    15.6562 ave 24 max 1 min
Histogram: 2 0 2 3 5 5 23 13 8 3
Nghost:    4896.86 ave 5129 max 4641 min
Histogram: 4 1 6 10 7 12 8 7 7 2
Neighs:    12554.3 ave 21904 max 1062 min
Histogram: 2 0 7 5 13 13 9 5 7 3

Total # of neighbors = 803476
Ave neighs/atom = 801.872
Ave special neighs/atom = 5
Neighbor list builds = 10000
Dangerous builds not checked
unfix relax

#===========================================================
# RUN RAMPED ANNEAL
#===========================================================

# REINITIALIZE THE VELOCITIES AND CREATE THE ANNEALING FIX
velocity        all create ${ANNEAL_TEMP} ${vseed} mom yes rot yes     # DRAW VELOCITIES
velocity        all create 100.0 ${vseed} mom yes rot yes     
velocity        all create 100.0 65358 mom yes rot yes     

fix mom all momentum 1000 linear 1 1 1 angular # Zero out system linear and angular momentum every ps
fix anneal all npt temp ${ANNEAL_TEMP} ${FINAL_TEMP} 100.0 iso ${pressure} ${pressure} 1000.0 # NPT, nose-hoover 100 fs T relaxation
fix anneal all npt temp 100.0 ${FINAL_TEMP} 100.0 iso ${pressure} ${pressure} 1000.0 
fix anneal all npt temp 100.0 298.0 100.0 iso ${pressure} ${pressure} 1000.0 
fix anneal all npt temp 100.0 298.0 100.0 iso 1.0 ${pressure} 1000.0 
fix anneal all npt temp 100.0 298.0 100.0 iso 1.0 1.0 1000.0 

# CREATE COORDINATE DUMPS FOR ANNEAL
dump anneal all custom ${coords_freq} anneal.lammpstrj id type x y z mol
dump anneal all custom 1000 anneal.lammpstrj id type x y z mol
dump_modify anneal sort id format float %20.10g

# RUN RAMPED ANNEAL
run ${nSteps_ramp}
run 50000
PPPM initialization ...
WARNING: Using 12-bit tables for long-range coulomb (../kspace.cpp:321)
  G vector (1/distance) = 0.187402
  grid = 8 8 8
  stencil order = 5
  estimated absolute RMS force accuracy = 0.00698511
  estimated relative force accuracy = 2.10354e-05
  using double precision FFTs
  3d grid and FFT values/proc = 343 8
Per MPI rank memory allocation (min/avg/max) = 9.839 | 10.36 | 10.55 Mbytes
Step Temp Volume Density TotEng PotEng E_bond E_angle E_dihed E_coul E_long E_vdwl Enthalpy Press 
   10000       100.0000000000     10695.9790036771         0.8307431588     -1292.5591505831     -1590.9382365881         8.5538743831        17.2378895490       -38.4342882195      2035.7238115635     -3120.4990886034      -493.5204352608     -1545.0442852918     -1618.5994280734 
   11000        93.5295127805      9876.5878693084         0.8996640845     -1028.4715826970     -1307.5440880763       109.6994744803       109.4151239241       -21.6100790390      2101.5121939815     -3119.6146455091      -486.9461559141     -1433.4200546767     -2811.3631193015 
   12000       112.0228102156      9721.9810883172         0.9139712681      -998.6264678194     -1332.8791050580        85.5305611848       101.0328177575       -13.9170406943      2111.4340348173     -3119.7523380238      -497.2071400994      -832.3833636912      1172.5003423893 
   13000       109.5538295111      9489.2614931069         0.9363859759      -985.5192528995     -1312.4049680781        96.7302881538       113.6104831091       -14.7071080435      2122.7800693850     -3119.0450606933      -511.7736399892     -1320.2901177338     -2419.0193943482 
   14000       110.7306064581      9591.2286789069         0.9264309799      -979.6714669933     -1310.0684384709        97.0374394016       113.2916258584       -10.7368764037      2104.7596510752     -3119.6378374680      -494.7824409343      -809.7165983123      1215.0201352845 
   15000       121.2370818786      9568.7212562168         0.9286101189      -924.5957910782     -1286.3418878866        98.0876345242       127.3652245174       -15.8636788528      2130.7134432760     -3120.0266237261      -506.6178876254     -1197.9198134022     -1958.6101936046 
   16000       124.2675454097      9444.5388614318         0.9408200352      -928.8872247473     -1299.6755909416        98.0515038179       118.9523898996       -10.1781958466      2136.2633710106     -3119.8190108534      -522.9456489698      -796.0012807277       964.7669082513 
   17000       128.5254007369      9432.3672232456         0.9420340804      -880.8877364688     -1264.3806524718       106.2075827597       131.1227572023        -4.6825515104      2125.5106699919     -3119.7008102619      -502.8383006535      -906.3730521616      -185.2650200601 
   18000       134.3983698095      9503.0540696739         0.9350269207      -849.7100330486     -1250.7266604918       111.5225792896       135.9784392380       -10.1712284506      2135.7048669567     -3119.6146181265      -504.1466993991      -929.7434521956      -577.4737950250 
   19000       133.4435842961      9678.8147508484         0.9180474689      -823.3189339256     -1221.4866810806       118.1112430567       145.3413625576        -7.9273404245      2145.2272292202     -3119.4804785111      -502.7586969794     -1094.4551557343     -1920.8324011870 
   20000       136.7649129171      9511.9799062280         0.9341495116      -841.1960693666     -1249.2739665042       116.3933268295       140.4324238114        -7.2831598912      2119.2690120798     -3119.1473297979      -498.9382395358      -725.7380402672       832.2950776196 
   21000       141.6876893173      9595.5444549832         0.9260143002      -803.8710924759     -1226.6375248423       118.6797314665       146.5911553175       -10.0608767583      2133.0511486205     -3119.5683383469      -495.3303451416     -1063.3827452294     -1854.4338767660 
   22000       146.7864216204      9494.1384965347         0.9359049678      -779.2296642756     -1217.2096474862       111.8902084023       145.9839636038        -6.6143741077      2162.2131564165     -3119.0755395795      -511.6070622215      -302.0469968617      3446.3010184636 
   23000       147.8557089615      9507.3531888283         0.9346041119      -758.7607704708     -1199.9312834764       128.1579627606       165.4063970894        -6.9657979459      2142.7983911652     -3119.7026950052      -509.6255415404      -673.4503656821       615.2710563276 
   24000       152.5491862123      9603.8444032749         0.9252140091      -729.7449268514     -1184.9197943796       128.8606983730       164.1013650376        -4.9788728248      2146.0410197975     -3119.7770912832      -499.1669134797      -500.7575336158      1634.8976461751 
   25000       163.3669772406      9643.0330808610         0.9214539978      -687.2225668950     -1174.6754604196       150.8008994874       159.2829413317        -7.9113380991      2149.7526538110     -3120.4447829446      -506.1558340060      -741.6871222646      -387.2794175916 
   26000       162.3576871788      9684.0484902124         0.9175513105      -678.4166125102     -1162.8579955732       137.6871084016       171.1614744354        -9.9044661545      2145.1892404018     -3119.6983267577      -487.2930258998      -484.9499490596      1369.8508925842 
   27000       167.7867785918      9659.2083818032         0.9199109319      -652.8115625086     -1153.4522189079       143.8480056588       173.3754245019        -6.7646309515      2158.1462329113     -3120.0481896698      -502.0090613587      -619.3721187711       237.3786303114 
   28000       175.4500097527      9975.2823311642         0.8907628966      -604.9113229772     -1128.4174584728       142.8038422071       188.2564867303        -5.1089319869      2146.4813695109     -3119.6888975150      -481.1613274193      -586.0519440427       129.6362026145 
   29000       173.1384524387      9642.5082975564         0.9215041470      -603.6677073291     -1120.2766392389       141.3710136004       190.2402162094        -6.7190073302      2191.0113112623     -3119.4356761283      -516.7444968524      -481.9734827625       865.3744270360 
   30000       173.7411802498      9944.4002875053         0.8935291347      -566.2236114759     -1084.6309571196       157.8983507277       195.4161918543        -3.0149807327      2149.0659227400     -3119.2552604987      -464.7411812102      -273.1427780993      2020.8446593569 
   31000       185.2082108345     10049.7135335836         0.8841656385      -530.9654038659     -1083.5879705600       159.3811419899       193.3488259755        -4.3923498939      2166.2952928237     -3119.1795604925      -479.0413209626      -596.4862398067      -447.0435754139 
   32000       183.9367807216      9935.8537393085         0.8942977239      -519.4914273952     -1068.3203125392       172.1148652820       203.0876561583        -1.5397503659      2160.0803641897     -3118.4463923390      -483.6170554644      -708.0625848417     -1301.3502130845 
   33000       189.3625131299      9971.7057886743         0.8910823857      -499.5946895074     -1064.6128254205       156.2843270905       207.4522008538         4.1040176189      2148.9968690774     -3118.6092117882      -462.8410282730      -194.3353617278      2099.0539345419 
   34000       193.3361857704      9860.1668925636         0.9011623718      -458.8010733373     -1035.6758173560       165.0812553702       221.4485445407         0.5563306142      2156.8212754659     -3119.6096644635      -459.9735588836      -577.2412834430      -823.6430039882 
   35000       192.2961624106     10031.2426837784         0.8857936812      -448.1736432585     -1021.9451750821       172.3529590536       215.7786081600         3.4673986612      2183.0759984667     -3118.9247503623      -477.6953890613      -697.5204999414     -1704.4068503720 
   36000       203.8318120991      9980.3124808064         0.8903139456      -396.9857768339     -1005.1772747627       180.1049774020       233.3159493189        -0.3748400333      2155.7163438643     -3118.5286836451      -455.4110216695      -304.6328603423       634.4984805471 
   37000       199.1360058640     10128.9263302596         0.8772510623      -390.0180732873      -984.1982674910       188.3377773239       214.2328199228         5.1812341650      2190.6152083552     -3118.4871779731      -464.0781292847      -715.0293150932     -2200.1844007135 
   38000       214.0181943151     10223.3495388494         0.8691487413      -334.4030691181      -972.9886011999       187.4943737894       227.4815707306         4.4158960962      2186.2456773288     -3118.5894452625      -460.0366738824      -555.6243264957     -1483.7398374226 
   39000       213.7995285399     10159.7611816005         0.8745886074      -345.7357367752      -983.6688159157       182.4724842053       232.8383460775        -6.6368644727      2184.9596362872     -3118.9641492673      -458.3382687456       -40.4903434388      2060.1067715084 
   40000       219.1526029289     10135.3704384971         0.8766933027      -318.3407380684      -972.2462716438       185.6516540614       216.4749663810         4.3441525687      2185.5286152127     -3118.9328014281      -445.3128584395      -205.8457911623       761.0575510458 
   41000       217.5073266316     10250.8304171471         0.8668186890      -264.0056752959      -913.0020484933       199.4913278111       253.5132266163        -6.6167978862      2226.7155689899     -3118.7376050641      -467.3677689602      -139.6500007818       831.8225110254 
   42000       228.8811833587     10553.1672614978         0.8419852698      -194.3409363401      -877.2745192832       231.2478096399       249.5730753656        -1.2949238488      2228.2037557456     -3119.3454664698      -465.6587697158      -464.6706546967     -1756.4471268007 
   43000       224.0642384969     10370.0254489983         0.8568553112      -224.1190000741      -892.6798269652       212.3353025996       245.7581739793        -2.3659511965      2232.4324445682     -3117.7992506464      -463.0405462694      -540.9502244149     -2094.9432556748 
   44000       240.8910059225     10384.9006733986         0.8556279605      -152.2398232833      -871.0082050230       219.8715937126       252.1419537767         1.5808404012      2240.9321015763     -3117.7841654913      -467.7505289985      -178.3165183543      -172.1766732001 
   45000       240.3578115675      9918.6521007069         0.8958486792      -155.3277215803      -872.5051628769       216.7619948071       265.5763222595        10.4770401372      2220.7988975763     -3118.7181223939      -467.4012952632        68.3694110472      1546.4357120885 
   46000       249.9659534664     10339.0479110458         0.8594225948      -105.8892411129      -851.7353683895       213.9489396425       263.9642143491         5.0540826457      2227.4010483509     -3118.5972477214      -443.5064056564       169.4232551471      1825.8684610668 
   47000       250.0781977060     10458.7779765454         0.8495840913       -40.3878870389      -786.5689276518       246.8742649647       289.2413430043         2.7870952037      2262.9653607328     -3119.0762784431      -469.3607131142      -210.9381679640     -1118.1385116943 
   48000       244.0384942980     10505.3483369904         0.8458178728       -81.2858278494      -809.4456566360       243.3178351684       269.7367417562         3.5830067992      2233.5355281479     -3117.8158526292      -441.8029158785      -213.3422241547      -861.9321791918 
   49000       252.4542352797     10319.0131955794         0.8610911930       -31.2159225645      -784.4865623731       259.8152488824       268.6404421639         3.9642518750      2245.1154842586     -3118.0330708867      -443.9889186663        78.9874672529       732.2862781726 
   50000       256.7185733142     10198.0683168916         0.8713033790       -21.7719690814      -787.7665017415       239.8150090247       285.8687763811         4.7194313783      2240.8817733607     -3117.6790265099      -441.3724653765       103.0711059551       839.4032588312 
   51000       258.3077183355     10641.9991193842         0.8349569741        32.1559980210      -738.5802110287       260.0897784569       295.7410226435         2.5216359821      2259.4920151234     -3117.8854228650      -438.5392403697      -454.8386701884     -3137.7988419250 
   52000       268.3792530962     10621.1001206336         0.8365999080        34.8987280321      -765.8888343835       252.2448597051       268.2930385502        -3.8692798521      2270.7113387694     -3118.1149976424      -435.1537939136       -31.5036423928      -428.6849046294 
   53000       274.1880916590     10854.0358012076         0.8186458518       106.5914822279      -711.5284395987       246.4439385549       318.6395645573         1.7905030472      2275.5622682532     -3117.2129842242      -436.7517297872        -8.7446458963      -728.6152029123 
   54000       267.7648807337     10663.4784121644         0.8332751322        79.8207710355      -719.1336327400       255.3039810709       284.0169299787        23.4557306116      2277.3099756151     -3118.3638907646      -440.8563592519       111.6529169856       204.6874115070 
   55000       291.9630207476     10916.0898830094         0.8139921418       171.1188320386      -700.0377607405       266.1747095697       280.2876990889        12.1485748418      2282.5330281709     -3117.4260603261      -423.7557120858       330.0591176065       998.3687911917 
   56000       277.1071891351     11117.3314537777         0.7992575755       177.1625918742      -649.6673063214       258.9538495011       325.5819463300         7.7476814412      2303.4024929437     -3117.4039722928      -427.9493042447        35.2556702815      -875.2399558824 
   57000       286.2824128662     10781.6050391626         0.8241455100       187.0514902913      -667.1553566120       264.8706203778       306.8267724209         7.7872394941      2312.3716249537     -3118.6047622567      -440.4068516019      -216.5390805252     -2566.7389641260 
   58000       285.2803775358     10648.4871064181         0.8344482455       155.4969031059      -695.7200799372       263.3449573069       318.0902464505         8.2223808341      2283.3441450243     -3118.5108490557      -450.2109604973       374.9548914134      1413.1478271933 
   59000       304.3406592697     10611.2300508134         0.8373780741       278.9790924958      -629.1097849746       301.6173835914       322.0059668339         6.5225897085      2312.1405914304     -3117.7545193916      -453.6417971472       288.9909327837        64.6952348113 
   60000       281.9370366963     10608.5755216860         0.8375876069       188.0076931390      -653.2334600649       277.7267324713       337.0349109601        10.5149939637      2271.4313675752     -3117.9671986965      -431.9742663386       418.8241462854      1491.8796888247 
Loop time of 68.0143 on 64 procs for 50000 steps with 1002 atoms

Performance: 63.516 ns/day, 0.378 hours/ns, 735.139 timesteps/s
99.3% CPU use with 64 MPI tasks x no OpenMP threads

MPI task timing breakdown:
Section |  min time  |  avg time  |  max time  |%varavg| %total
---------------------------------------------------------------
Pair    | 7.5364     | 11.781     | 16.468     |  75.5 | 17.32
Bond    | 0.21939    | 0.28162    | 0.34404    |   5.0 |  0.41
Kspace  | 8.0475     | 12.768     | 17.007     |  72.7 | 18.77
Neigh   | 23.574     | 23.677     | 23.893     |   1.4 | 34.81
Comm    | 17.275     | 17.547     | 17.726     |   2.1 | 25.80
Output  | 0.030547   | 0.030601   | 0.031031   |   0.0 |  0.04
Modify  | 1.0657     | 1.2129     | 1.2875     |   4.8 |  1.78
Other   |            | 0.7157     |            |       |  1.05

Nlocal:    15.6562 ave 26 max 6 min
Histogram: 1 3 5 8 10 15 14 6 1 1
Nghost:    4952 ave 5039 max 4829 min
Histogram: 1 2 4 3 13 8 11 11 6 5
Neighs:    12680.4 ave 21698 max 4851 min
Histogram: 5 9 8 6 8 6 7 4 7 4

Total # of neighbors = 811544
Ave neighs/atom = 809.924
Ave special neighs/atom = 5
Neighbor list builds = 50000
Dangerous builds not checked
unfix anneal

# RUN EQUILIBRATION PHASE AT FINAL TEMP
fix anneal all npt temp ${FINAL_TEMP} ${FINAL_TEMP} 100.0 iso ${pressure} ${pressure} 1000.0 # NPT, nose-hoover 100 fs T relaxation
fix anneal all npt temp 298.0 ${FINAL_TEMP} 100.0 iso ${pressure} ${pressure} 1000.0 
fix anneal all npt temp 298.0 298.0 100.0 iso ${pressure} ${pressure} 1000.0 
fix anneal all npt temp 298.0 298.0 100.0 iso 1.0 ${pressure} 1000.0 
fix anneal all npt temp 298.0 298.0 100.0 iso 1.0 1.0 1000.0 
run ${nSteps_ramp}
run 50000
PPPM initialization ...
WARNING: Using 12-bit tables for long-range coulomb (../kspace.cpp:321)
  G vector (1/distance) = 0.187569
  grid = 8 8 8
  stencil order = 5
  estimated absolute RMS force accuracy = 0.00692832
  estimated relative force accuracy = 2.08644e-05
  using double precision FFTs
  3d grid and FFT values/proc = 343 8
Per MPI rank memory allocation (min/avg/max) = 10.44 | 10.55 | 10.55 Mbytes
Step Temp Volume Density TotEng PotEng E_bond E_angle E_dihed E_coul E_long E_vdwl Enthalpy Press 
   60000       281.9370366963     10608.5755216860         0.8375876069       188.0084222489      -653.2327309550       277.7267324713       337.0349109601        10.5149939637      2274.1994547571     -3120.7345567685      -431.9742663386       418.8288065518      1491.9050978137 
   61000       293.3180230186     11164.6122033340         0.7958728187       250.4758065933      -624.7238295775       285.6643497878       301.3429182286        10.7221765281      2315.0306163868     -3120.5902358463      -416.8936546625      -304.1063255105     -3406.0133118031 
   62000       298.8394651137     11031.9376962089         0.8054443044       288.9504077874      -602.7240568409       292.1655269561       332.1488642951        11.2174348264      2278.4680055183     -3120.7876180523      -395.9362703845       568.3504175748      1736.5957232235 
   63000       301.1410854128     11404.6107640427         0.7791244758       307.5784757414      -590.9635424990       286.7329834344       324.4833613735        11.6193470200      2326.3014338617     -3120.2092938623      -419.8913743263       208.9101277037      -593.2278072081 
   64000       298.2742045015     10755.4819342778         0.8261472092       232.8456675324      -657.1421776479       270.8575331867       307.3235486735        16.3259347651      2288.1042334516     -3120.5946281942      -419.1587995307       570.2463703906      2150.9990492514 
   65000       301.7057335736     10937.7236862008         0.8123821408       264.1648709960      -636.0619392656       286.8903064418       310.1761296213         7.8030248412      2321.0511885852     -3121.1579891984      -440.8245995566       386.4861479889       766.8301307300 
   66000       287.9931360473     11361.7377823509         0.7820644653       284.6321814716      -574.6791056236       297.0791493763       330.3329460126        17.3374090286      2310.6885670303     -3120.4221258319      -409.6950512395       -16.4343472117     -1816.9451783541 
   67000       296.6943137913     10924.8522664604         0.8133392715       269.7675572631      -615.5062244562       295.6913188947       313.8887952540        22.9077199780      2299.3184980798     -3121.2149480671      -426.0976085955        83.0312182311     -1172.0263558747 
   68000       290.4178020110     11469.5398639141         0.7747138498       274.8306348417      -591.7153483946       286.5357359250       323.3448923469         8.0017514105      2297.2276534992     -3120.2105068380      -386.6148747382       386.6143850921       668.2774259798 
   69000       307.6647152886     11091.0673631089         0.8011502494       258.0249358148      -659.9822296233       258.5559980028       315.8050470743        14.2058099065      2314.2084203552     -3122.0086887991      -440.7488161629       361.8866265166       642.1051534075 
   70000       301.0103326822     11209.6416548925         0.7926757748       294.0850092795      -604.0668701584       282.4681564834       336.3360973117        13.6480671367      2299.5276410240     -3120.9150502364      -415.1317818779       -35.6987866805     -2017.2591486714 
   71000       295.3049421844     10763.6082930372         0.8255234808       265.5652681834      -615.5629192339       262.4915522895       355.0949878095         4.4492612123      2312.6619481821     -3121.2814655672      -428.9792031601       288.6045816618       146.7694814691 
   72000       296.1832976438     11338.0136281554         0.7837008911       257.4247656364      -626.3242507727       274.5746478610       300.1036968671        14.3391959689      2311.8191774566     -3120.6123819524      -406.5485869739      -422.2294041119     -4110.3151483305 
   73000       306.8480439665     11504.0449213216         0.7723901849       326.6047388947      -588.9656501168       273.9044071909       321.4849168696        10.0463350707      2343.4417362865     -3121.8614373689      -415.9816081656       661.0499211277      1993.4185068771 
   74000       288.3100994570     10869.6333377356         0.8174711241       249.2378847001      -611.0191549199       280.7561652046       318.6226403559         6.5035561589      2322.7128773128     -3120.6821496471      -418.9322443049       929.6896719047      4292.4631478192 
   75000       296.1458474133     11214.8414612230         0.7923082475       278.2969290789      -605.3403436747       260.7313079407       320.3117981051         6.7294981167      2325.9727303734     -3119.7159664005      -399.3697118102       453.6299658267      1071.9998555929 
   76000       299.4853688705     11253.4138533562         0.7895925183       328.4153219842      -565.1863843702       270.6608161860       338.5108391688         6.8734716497      2349.5363420828     -3120.8240586344      -409.9437948232       178.1684875398      -915.4721785642 
   77000       294.9971597078     10999.8271776858         0.8077955444       240.8920479801      -639.3177808967       267.9616564432       283.9217659203        10.2786393292      2319.1802634703     -3119.6539870946      -401.0061189652       595.0495892172      2207.6729816433 
   78000       288.3463167140     11274.6249976275         0.7881070444       292.1562834638      -568.2088208767       277.4418376216       336.6121129219        19.5556389615      2348.9212436869     -3120.1943823233      -430.5452717453       611.2519321176      1940.6306521229 
   79000       287.1400657254     11035.0604926715         0.8052163728       276.5243282330      -580.2415754326       269.8252978272       322.4297323199        10.6335410636      2368.9993241645     -3120.1775465277      -431.9519242800       221.2120302986      -343.6933220158 
   80000       301.3146629809     11340.6003348614         0.7835221347       303.2952019589      -595.7647354424       290.6388225805       295.9304388531        11.5677139156      2342.7331194212     -3120.4988465702      -416.1359836426       209.6822719894      -566.0097386366 
   81000       280.8666834019     11353.0945213942         0.7826598613       239.8965250862      -598.1509177410       274.6428076769       335.7155658300         8.4925965101      2312.8003136026     -3120.4952340896      -409.3069672710      -103.9354062570     -2076.6153680977 
   82000       301.5291493744     11144.8437151741         0.7972845210       298.1765290945      -601.5233908474       279.7941873485       328.3336163340         7.9475962876      2315.9762324088     -3121.0036043295      -412.5714188969       271.8577006894      -161.9260345422 
   83000       299.4826316685     11494.6159901833         0.7730237697       316.1001282990      -577.4934108171       297.1987933593       306.7275659241         5.8751921572      2330.9063614190     -3120.7660026464      -397.4353210303       216.5813149129      -593.6559605292 
   84000       304.3234212117     11064.4827807039         0.8030751694       263.1335596563      -644.9038830542       250.9320150711       323.6807290485        12.9577633598      2326.1870192517     -3120.7384584234      -437.9229513619       244.0537133184      -118.2409379422 
   85000       306.9242003954     11144.5675564694         0.7973042775       305.5905558529      -610.2070680151       286.6064914635       306.8587993535         9.2588512443      2345.5408762346     -3121.2527273845      -437.2193589265       -61.6163067680     -2259.2884308393 
   86000       298.5187736161     10922.9644223046         0.8134798430       252.4837583345      -638.2338299345       282.4386209519       316.9744012629        11.5137253111      2296.9624651501     -3121.2171150270      -424.9059275834       112.5634126959      -878.3436396713 
   87000       305.9594881973     11238.9725323701         0.7906070914       381.3831604104      -531.5359640182       310.6621085502       335.0014220678        16.7469540048      2333.1619778886     -3121.5247195193      -405.5837070103       519.1848327863       840.7211808685 
   88000       287.5025829473     10892.9058955458         0.8157246073       241.3061897637      -616.5413894752       265.6501492950       328.5114205727        14.7494244902      2317.5853890389     -3119.9521534867      -423.0856193854      -155.9515864244     -2500.6491675267 
   89000       290.9497170316     11252.6402525990         0.7896468015       260.3026269318      -607.8304794811       273.8841704620       340.6102808942        10.3852713553      2296.3215942057     -3119.7171974403      -409.3145989580       316.2565456776       340.9574495685 
   90000       301.4419894469     10918.5835997300         0.8138062325       300.8616897728      -598.5781631741       267.9237532492       338.2104053264        17.5765274338      2342.8854821534     -3120.5259375806      -444.6483937563       487.6402527695      1172.9644146314 
   91000       295.4015242611     10915.0750589970         0.8140678223       272.7651139212      -608.6512542137       257.7120554202       332.4718790690        10.2829984798      2315.6804364634     -3119.4764447383      -405.3221789079        20.9989503182     -1581.5930440776 
   92000       301.8258768614     10988.7656766127         0.8086086868       317.0173494143      -583.5679432913       290.6335148187       332.5562078300         8.6351121602      2333.7950966880     -3120.7669260754      -428.4209487128       188.5959367906      -801.3322856091 
   93000       311.4883819392     11298.4759635009         0.7864433586       320.6069431216      -608.8092439203       282.0434530746       319.3585663755        16.2503800613      2323.3989194248     -3120.7949214761      -429.0656413804       598.8191334535      1688.4196582231 
   94000       302.8759067587     10777.2946275108         0.8244751295       267.7804424002      -635.9379199158       270.3673480928       330.4214564973        13.4594803526      2290.8024584100     -3120.3463349001      -420.6423283684       643.1025065187      2387.9127314053 
   95000       295.8554080054     11152.9791031493         0.7967029528       249.4201778262      -633.3504844768       289.6532273608       317.9728151229         6.7559762861      2284.7230739010     -3121.3767142134      -411.0788629343       -91.3046960901     -2094.7734537509 
   96000       293.5857861826     11074.5097890762         0.8023480545       261.5660351050      -614.4325503472       265.7992454259       328.6753859964         8.9889481078      2331.1392162726     -3119.5893338370      -429.4460123128       335.5127236917       457.8448461789 
   97000       295.3348251319     11200.1840192650         0.7933451244       323.6674819720      -557.5498699111       300.6804362900       338.4708435387        10.5769377772      2319.4144335013     -3120.6543511323      -406.0381698860       338.9781287569        93.7329941060 
   98000       284.7179605858     11082.1317034268         0.8017962267       265.8202661468      -583.7185823411       287.8508080367       342.7414111316        10.7525578919      2324.8363236697     -3120.4941009428      -429.4055821281      -109.0687754841     -2319.5489887160 
   99000       292.7838781198     10921.7476207815         0.8135704735       195.7190438475      -677.8868156564       252.9858642604       303.7788215569         6.9808371294      2275.7214181619     -3119.0634869225      -398.2902698424       451.0228786872      1602.8368266880 
  100000       302.0430780910     11077.7509080550         0.8021133042       300.2809671435      -600.9524086057       282.5095323489       326.6548343235        12.6650479967      2328.1359078815     -3121.8666266345      -429.0511045218       366.5825776706       410.3898330560 
  101000       295.4622344812     11178.4493662390         0.7948876532       274.9301137773      -606.6674009575       259.7318419966       319.9578351224         5.3274942297      2348.4743268792     -3118.7170770594      -421.4418221261       450.6074245016      1077.6015843667 
  102000       298.6875057356     11494.7068402495         0.7730176600       293.0232548662      -598.1977947588       280.8465618159       324.7932398232        10.2651799033      2305.7379834107     -3121.4820745309      -398.3586851811       131.2393239933      -965.0761751991 
  103000       284.4795398216     11479.8824361542         0.7740158867       271.9886369195      -576.8388138714       273.4809915893       333.0046564982         7.2450308397      2335.3454214930     -3120.6655672087      -405.2493470830       295.7959325471       142.1990630739 
  104000       293.7516523290     11454.5899259980         0.7757249662       284.3920328945      -592.1014624495       271.2392116946       324.9333665729         5.3656215598      2334.2507088392     -3120.2578820337      -407.6324890823       799.6643118543      3084.4756285442 
  105000       304.1970164486     11038.7165096348         0.8049496856       333.5433682983      -574.1169090354       287.9237082882       330.9839784613        13.1303485160      2316.6444095364     -3121.2563477660      -401.5430060713       396.3097801632       389.8816835323 
  106000       289.0973016698     11376.7811754130         0.7810303500       232.4511694282      -630.1547169592       279.6047042251       303.9411214260        18.1652488805      2302.0754873423     -3120.2441004922      -413.6971783409      -102.6966515293     -2019.9522623694 
  107000       304.9341844151     11069.3786138440         0.8027199804       306.9098594618      -602.9499729128       288.9798905073       323.7649543392         6.5967447604      2309.5858651606     -3121.4377338779      -410.4396938025       577.0235774654      1673.1986644760 
  108000       289.8776701216     11258.1767066356         0.7892584754       251.1772818677      -613.7570607736       268.3281777233       317.2543971172        10.3787525674      2341.1090897212     -3120.7174626596      -430.1100152432        26.6731571415     -1367.3521383230 
  109000       298.6261272289     11061.7867300612         0.8032709001       281.0529355678      -609.9849734300       269.4407803909       318.7811441842        16.5494984783      2329.2146300067     -3120.8902784956      -423.0807479945       117.4579627257     -1014.0719816326 
  110000       288.8923221803     11172.4127754791         0.7953171407       297.3812623587      -564.6130081016       297.4027031189       335.0859117373         8.6594534306      2335.5915066788     -3119.3327831199      -422.0197999473       752.2726984140      2791.8038291466 
Loop time of 62.5205 on 64 procs for 50000 steps with 1002 atoms

Performance: 69.097 ns/day, 0.347 hours/ns, 799.738 timesteps/s
99.3% CPU use with 64 MPI tasks x no OpenMP threads

MPI task timing breakdown:
Section |  min time  |  avg time  |  max time  |%varavg| %total
---------------------------------------------------------------
Pair    | 6.9021     | 10.563     | 14.366     |  64.7 | 16.89
Bond    | 0.25162    | 0.27804    | 0.303      |   2.0 |  0.44
Kspace  | 8.4259     | 12.25      | 15.952     |  60.1 | 19.59
Neigh   | 22.001     | 22.081     | 22.23      |   1.0 | 35.32
Comm    | 15.493     | 15.67      | 15.785     |   1.4 | 25.06
Output  | 0.028758   | 0.028813   | 0.029229   |   0.0 |  0.05
Modify  | 1.0417     | 1.1274     | 1.1811     |   2.5 |  1.80
Other   |            | 0.5226     |            |       |  0.84

Nlocal:    15.6562 ave 22 max 8 min
Histogram: 2 1 4 7 7 17 8 15 0 3
Nghost:    4728.89 ave 4812 max 4626 min
Histogram: 2 1 6 6 11 9 12 8 6 3
Neighs:    12043.8 ave 19652 max 5947 min
Histogram: 4 6 12 5 13 8 9 0 3 4

Total # of neighbors = 770806
Ave neighs/atom = 769.267
Ave special neighs/atom = 5
Neighbor list builds = 50000
Dangerous builds not checked
unfix anneal
undump anneal

# RETURN TO LESS FREQUENT NEIGHBOR BUILDS
neigh_modify every 1 delay 10 check yes one 10000 # More relaxed rebuild criteria can be used

#===========================================================
# RUN EQUILIBRIUM SIM
#===========================================================

# UPDATE RUN PARAMETERS AND CREATE FIX
fix equil all npt temp ${FINAL_TEMP} ${FINAL_TEMP} 100.0 iso ${pressure} ${pressure} 1000.0 # NPT, nose-hoover 100 fs T relaxation
fix equil all npt temp 298.0 ${FINAL_TEMP} 100.0 iso ${pressure} ${pressure} 1000.0 
fix equil all npt temp 298.0 298.0 100.0 iso ${pressure} ${pressure} 1000.0 
fix equil all npt temp 298.0 298.0 100.0 iso 1.0 ${pressure} 1000.0 
fix equil all npt temp 298.0 298.0 100.0 iso 1.0 1.0 1000.0 

# CREATE COORDINATE DUMPS FOR EQUILIBRIUM
dump equil all custom ${coords_freq} equil.lammpstrj id type x y z mol
dump equil all custom 1000 equil.lammpstrj id type x y z mol
dump_modify equil sort id format float %20.10g

# RUN EQUIL
run		${nSteps_equil}
run		100000
PPPM initialization ...
WARNING: Using 12-bit tables for long-range coulomb (../kspace.cpp:321)
  G vector (1/distance) = 0.186514
  grid = 8 8 8
  stencil order = 5
  estimated absolute RMS force accuracy = 0.00729432
  estimated relative force accuracy = 2.19666e-05
  using double precision FFTs
  3d grid and FFT values/proc = 343 8
Per MPI rank memory allocation (min/avg/max) = 11.05 | 11.05 | 11.05 Mbytes
Step Temp Volume Density TotEng PotEng E_bond E_angle E_dihed E_coul E_long E_vdwl Enthalpy Press 
  110000       288.8923221803     11172.4127754791         0.7953171407       297.3878098253      -564.6064606349       297.4027031189       335.0859117373         8.6594534306      2318.1196565734     -3101.8543855478      -422.0197999473       752.3023382034      2791.9455535889 
  111000       314.6633405684     10655.2973653968         0.8339149138       305.9630852799      -632.9265143010       266.7608233886       302.7262177288         9.3595215074      2324.4593349304     -3102.9283782134      -433.3040336428       524.8650051507      1408.6662409576 
  112000       290.4186155529     11349.4380791655         0.7829120104       269.3273690809      -597.2210415942       264.0945728975       332.9850017778        10.2610416416      2320.3772165400     -3103.5309337438      -421.4079407073       168.6392699946      -608.3141134878 
  113000       311.3185188797     11264.4613721246         0.7888181325       334.7232949076      -594.1860562900       279.6444462444       318.3924197718        15.8667502567      2309.3275842736     -3102.5561747883      -414.8610820482       462.0808760344       775.2441228760 
  114000       304.9123631852     11102.1813588622         0.8003482466       263.7380975962      -646.0566247921       265.6155134637       313.0782917809         4.4597529565      2298.3963719602     -3102.0380279535      -425.5685269999       289.8334645649       161.1681429123 
  115000       303.6461599780     11129.8274722775         0.7983602087       305.3727893284      -600.6438475032       284.0648397907       348.2181491677         8.4360134358      2295.9772412015     -3103.3137109362      -434.0263801627       485.4100899058      1109.1701441210 
  116000       304.7905758378     11362.1479081005         0.7820362361       299.9773465497      -609.4539878644       264.1387704836       321.0291310842        14.1869574517      2296.7738306823     -3102.3390599937      -403.2436175725       -42.8700533286     -2069.0192546924 
  117000       287.7791346443     11054.5077580266         0.8037998234       214.3293619907      -644.3433896742       253.9321408963       329.1832641854        12.3374976477      2293.8761245257     -3103.6677971404      -430.0046197888       144.4975765526      -433.1495303926 
  118000       311.0310582641     11436.6359666131         0.7769427487       318.6788004915      -609.3728283486       279.1758091285       320.5284230437        10.7664450384      2270.5306070736     -3102.2364926053      -388.1376200275       485.4752164115      1000.0288459568 
  119000       290.0307066661     11109.9631216004         0.7997876578       257.3601753762      -608.0307963080       277.1965985987       320.6169809128         7.7987579223      2319.0785030652     -3102.0686602129      -430.6529765940       222.9896272081      -212.1279778135 
  120000       286.4912166019     11122.7987757419         0.7988647069       232.1225773747      -622.7072962066       277.3198185655       310.2275244939         9.3973144636      2301.1351173012     -3103.0993113508      -417.6877596800       543.9724670132      1922.4525302992 
  121000       294.3316256768     11033.4909840521         0.8053309144       289.4259087640      -588.7981057540       286.4732677256       347.3889696399         7.5895637493      2320.8537335812     -3102.9326692795      -448.1709711705      -203.3007651649     -3062.0849836516 
  122000       294.6897105723     11265.0723831188         0.7887753475       319.3624490342      -559.9300159222       286.2272135802       355.9121019375         9.6866275907      2299.1592513842     -3102.8550902752      -408.0601201396       534.5696080816      1309.9262295590 
  123000       290.5220018719     10801.6648675109         0.8226149851       243.8730298484      -622.9838639803       268.9539980987       323.2529554777        10.7001664391      2304.5557152096     -3103.7385198999      -426.7081793054       535.7208316289      1852.6348886745 
  124000       293.8059832807     11089.3428920083         0.8012748339       260.7882509610      -615.8673565799       268.9396406658       318.9986575911        15.2490664787      2307.0817933295     -3104.8112181606      -421.3252964844       682.3686951499      2606.7462368629 
  125000       291.5277222106     11132.2761114785         0.7981846026       268.6722058461      -601.1855471372       274.4549391264       331.2325996052         8.8399978318      2300.0861171202     -3104.2790701607      -411.5201306601       706.5300995564      2696.9526686458 
  126000       298.1595777613     10735.9623233609         0.8276492704       298.6310741291      -591.0147488315       293.9408733631       344.8234271116         8.7025969455      2288.0784159118     -3103.4804198874      -423.0796422761       234.1890723658      -411.5780017895 
  127000       298.9698254413     10986.6675211632         0.8087631091       315.7714209802      -576.2920116023       294.0362303197       317.8126958853        18.3270708051      2325.6700388617     -3102.6565163874      -429.4815310866       506.9601947919      1193.2199787436 
  128000       307.2768408400     11037.8578045835         0.8050123077       314.6685258834      -602.1813033200       277.3030547041       314.7864634740        11.6117058599      2318.9797937583     -3103.1204420980      -421.7418790183       260.2550058618      -338.0229106502 
  129000       310.8562044814     10964.6913150502         0.8103840891       239.7761720732      -687.7537296481       230.2198903833       323.5108290331         3.1793951923      2301.8410137321     -3103.8367745415      -442.6680834473       468.2258624902      1428.6250956860 
  130000       285.4216246482     10829.4336724790         0.8205056379       233.4618464526      -618.1765884334       284.5855851509       332.6657394263        13.4156898388      2294.1360731748     -3103.4169763846      -439.5626996395       309.5980158343       482.0692029296 
  131000       300.2170783303     11442.5266869165         0.7765427713       298.5427976793      -597.2421766735       270.9797693391       330.0774001630         7.9552736537      2300.5883154937     -3102.4575324618      -404.3854028612      -290.7409423331     -3531.2351147165 
  132000       291.9395798317     10974.8422176893         0.8096345448       284.9972701191      -586.0893798694       274.6677748658       346.0953365431        12.0865585268      2316.4101767921     -3102.6355618027      -432.7136647944       260.3338385539      -154.0917288237 
  133000       308.9419643358     11373.0818140033         0.7812843985       312.8841281738      -608.9340812973       259.4644715562       335.4690472261        11.5948444753      2323.2748939422     -3103.3714456522      -435.3658928449        11.9658404076     -1814.2391283285 
  134000       298.9063072050     11218.2121665872         0.7920701848       250.7208805260      -641.1530269237       244.7362727429       311.8959657927        15.0359394405      2295.2275999838     -3103.5519416899      -404.4968631937        87.7749341624      -995.9648745195 
  135000       289.0884257912     10939.8554929394         0.8122238351       251.7227785402      -610.8566240818       289.9146232496       300.6126873761         4.6555234854      2316.9273300561     -3103.7467329771      -419.2200552719       519.9724483485      1681.3251961962 
  136000       286.7558334190     10989.6381764532         0.8085444890       224.8932703031      -630.7261645186       262.2480697438       307.1199135485        12.9020371497      2304.4101984659     -3102.5678033850      -414.8385800415       450.1369295553      1405.3784533885 
  137000       297.0734586931     11135.2434542977         0.7979719007       302.5386568725      -583.8664139393       278.0746162011       312.8121849959         5.4076819204      2345.7758445690     -3101.6073288817      -424.3294127441       160.9778178910      -871.7009551585 
  138000       313.3633843249     11506.6407643612         0.7722159373       335.5257405499      -599.4850614731       270.8877772844       312.1749117603        12.1310687150      2316.7910788915     -3104.1405442123      -407.3293539119       502.2884962692       993.7442277785 
  139000       293.7301890229     10747.8826566651         0.8267313356       271.7943728412      -604.6350804862       283.4885683013       294.0704418429        10.8786232787      2340.3247088878     -3102.8393061833      -430.5581166135       796.0487963583      3344.5931655217 
  140000       295.0918487600     11488.3149842824         0.7734477507       316.4112704039      -564.0810908015       282.5133995907       319.3021427455        12.6113956610      2327.1503439089     -3100.5825068160      -405.0758658917       130.8926573654     -1107.2744146076 
  141000       311.6326824474     11110.1506450156         0.7997741586       309.6072086979      -620.2395408816       270.3934330553       299.8731274309         9.1892172708      2334.4256045501     -3103.4250646340      -430.6958585547       508.1514105646      1225.3534325881 
  142000       287.3499107136     11144.2165222162         0.7973293920       237.0158018915      -620.3762353319       275.6128035028       304.6471019140        12.1920785261      2280.1627865543     -3102.1966949966      -390.7943108326       529.6216502988      1800.3526048711 
  143000       314.8480810754     11063.4460686162         0.8031504224       351.2119960388      -588.2288305782       275.3395331206       324.5004545734         6.4193508680      2333.2585757728     -3103.1402975966      -424.6064473164       840.6973591959      3033.7053490584 
  144000       296.1265575190     11621.6665299247         0.7645729088       328.7932134756      -554.7865022675       288.5268947428       312.8386932791        26.0783036338      2333.5249963315     -3102.9563644663      -412.7990257885       164.2679598384      -970.7072424021 
  145000       307.5603515645     11091.9957638418         0.8010831930       330.0189962211      -587.6767696908       282.2393418903       299.9217208652        19.2981785475      2328.3257221450     -3103.8879431409      -413.5737899978       278.8826745294      -316.1141242732 
  146000       290.2617820627     11542.6462654689         0.7698071291       286.1044259131      -579.9760264275       282.0051135107       290.0484977515        15.5133911245      2359.1844244723     -3102.9278289972      -423.7996242894      -174.7204584631     -2737.5032715642 
  147000       307.5899512870     11944.4520060847         0.7439111798       354.6209948979      -563.1630903954       297.6489618939       306.2637697443         6.3075926290      2328.9478070536     -3103.2848219751      -399.0463997412      -133.2666691836     -2800.7717563834 
  148000       301.1825368435     11643.5053533753         0.7631388584       296.2439585377      -602.4217421027       264.6002346068       313.9203496437        12.1031049131      2309.3885694965     -3103.5854299261      -398.8485708367        91.0120475493     -1208.6074096077 
  149000       297.3005360720     11607.1359017881         0.7655300549       303.8582365333      -583.2243856863       273.4148981977       309.0480201648        11.7448202371      2326.3817989605     -3102.3659403112      -401.4479829353       418.1914465477       675.4161456268 
  150000       315.3608149820     11358.7108573121         0.7822728737       362.2142823626      -578.7564349985       293.1911747297       300.5434833116         3.2610810427      2328.1353033805     -3103.4329158777      -400.4545615852       602.2363844887      1448.9263187080 
  151000       292.7568885364     11153.5012396595         0.7966656562       304.2697981815      -569.2555300500       273.9335326987       319.2091854453        14.3279504606      2340.3329483087     -3102.8608293455      -414.1983176178       555.7963547990      1546.3106110879 
  152000       299.4471335328     11279.0762867723         0.7877960178       292.9639771481      -600.5236429552       247.4552365718       312.0307711006        14.4687676112      2336.3617388536     -3102.7444183772      -408.0957387153       451.9769119917       966.6806597903 
  153000       296.3889310518     11600.4049885461         0.7659742390       294.6612015339      -589.7013819586       277.7514496500       315.1974554639        14.3979999399      2293.4390657259     -3103.2047746833      -387.2825780550         1.8005183696     -1731.0596380229 
  154000       308.8165298157     11295.5137403587         0.7866496016       308.0289398429      -613.4149992536       271.4055206940       311.3983785177         6.3663637230      2310.2994027265     -3102.8174237291      -410.0672411857      -134.3091031299     -2685.1738839002 
  155000       292.6065312683     11337.8393354777         0.7837129387       253.1936935251      -619.8830000643       266.1282837473       307.3126768590        12.9964553527      2311.9127217974     -3103.3004214444      -414.9327163763        73.7580633069     -1085.1817876878 
  156000       289.2517298890     11325.8856916031         0.7845400903       252.6745821375      -610.3920857590       275.6102779605       303.7729236730         9.6201016306      2297.5174839252     -3102.2422260487      -394.6706468996       678.6186356206      2578.7218254965 
  157000       292.6680296396     10914.6594803590         0.8140988182       262.8119454774      -610.4482463901       256.8824568576       337.1595064688         4.1968752528      2321.0142394137     -3103.9451130323      -425.7562113507       502.0956288435      1503.2354360941 
  158000       317.2718910332     11445.5188518267         0.7763397622       336.3714130878      -610.3015555280       280.0611524747       294.6355746114        16.2031839179      2314.4133345083     -3104.1147109743      -411.5000900660       622.4621458082      1713.9273756645 
  159000       304.4098983778     11167.2856823679         0.7956822845       268.2105412309      -640.0849312574       267.8475532074       286.5831135621        11.0305830171      2307.8036797841     -3103.6265518242      -409.7233090038       292.4230468812       148.6675619162 
  160000       302.2475748156     11367.3951992344         0.7816752411       255.9812840835      -645.8622671235       252.5979162744       294.0306797044        16.3721511411      2307.4822934625     -3102.0400192031      -414.3052885027       704.3509070603      2704.5768923156 
  161000       297.3913984482     11247.4065305743         0.7900142455       286.9572058823      -600.3965306649       271.5087543726       319.6790814605        14.7418197606      2318.3503098798     -3103.3931961470      -421.2832999915       141.0711215466      -889.3763683447 
  162000       293.6078064366     11622.8258981505         0.7644966432       322.8809635942      -553.1833256907       269.3964124587       315.5319381152        11.7125057193      2356.5100657967     -3101.1660058273      -405.1682419534       353.0198960838       177.8034747065 
  163000       300.6225249669     11321.6468180093         0.7848338255       277.7667563460      -619.2279859755       267.1910078883       298.4135608505         6.7921643108      2324.6873713652     -3103.9328973623      -412.3791930280       304.3902087087       161.2422609259 
  164000       299.6609644876     11757.5684057914         0.7557354614       310.9320019422      -583.1936450097       270.2361610630       294.4739711852        13.6252823831      2343.0401444814     -3103.2431312045      -401.3260729180       417.4091426742       620.9590726370 
  165000       308.4525277955     11473.1834167755         0.7744678230       308.1686389685      -612.1891942271       259.6517606570       308.7781825591         4.0883757759      2321.4340780065     -3101.8310435001      -404.3105477253       516.8843435296      1247.3700216836 
  166000       294.8263748901     11425.1297640436         0.7777252046       327.8616797742      -551.8385629246       288.8097830008       318.9278862416        20.3282627975      2312.0111999545     -3103.1606989988      -388.7549959203       517.4011688647      1137.5295174109 
  167000       298.6500379455     11206.7203109516         0.7928824078       278.1149607691      -612.9942928061       253.7962232467       314.7969915070        13.9722978393      2306.5417475314     -3103.1214186551      -398.9801342755      -140.9804343895     -2564.2387944441 
  168000       307.7856781426     11653.2417405497         0.7625012491       352.9777077578      -565.3903855382       277.2883619275       314.5147675609        11.4857352703      2345.3575944836     -3102.7965096194      -411.2403351612       426.0480010895       429.9502498004 
  169000       301.7150982337     11078.7160938327         0.8020434235       301.5213486156      -598.7334038331       263.1304314387       313.0986908663        15.2153887851      2339.0960899736     -3101.6878321598      -427.5861727369       201.0785729807      -621.6606568086 
  170000       300.0134369269     11180.0788690987         0.7947717979       276.2148121537      -618.9625388409       257.3337978424       300.9028924551        15.1374157710      2311.9073791016     -3099.6191948259      -404.6248291851       414.5291480517       848.2940858777 
  171000       306.9240509379     12102.9438224254         0.7341694313       351.5194863909      -564.2776915272       261.8937138547       320.3698170972         8.0314408249      2338.8671918687     -3103.2602929205      -390.1795622523       -45.5615059754     -2249.6356814226 
  172000       306.4204532923     11415.0697572475         0.7784106074       337.4647831694      -576.8297646964       272.8065712338       324.4903463480        12.9886867573      2306.6014592728     -3102.3712769362      -391.3455513721       313.3074123316      -145.1092865958 
  173000       299.0558642853     11305.5688836670         0.7859499575       237.9791881940      -654.3409663048       253.4282244165       296.3290541915        10.7469826292      2287.7400905335     -3103.5210190632      -399.0642990123       462.6411728003      1362.5777131362 
  174000       301.8784455233     11794.4803658583         0.7533703146       314.2395570045      -586.5025895940       303.7872440341       290.4710918350         8.9612610405      2302.3220448794     -3102.8808607166      -389.1633706664       -60.7333016156     -2179.9429721401 
  175000       303.0506086139     11651.7158457595         0.7626011054       287.0328045768      -617.2068315378       269.3936800711       294.2511580695        11.7526119029      2295.8551453261     -3102.0163150960      -386.4431118115      -224.9220597173     -3012.7694548065 
  176000       303.7784957301     11623.2010663705         0.7644719671       373.7254013987      -532.6860976405       289.3882001146       323.8736450699        15.5961482397      2330.2737378013     -3102.8187344408      -388.9990944252       406.4226080358       192.8896885830 
  177000       283.6688998782     11648.6697625382         0.7628005227       304.0985941290      -542.3100766080       278.5360625812       321.9144957752        18.7618411904      2346.6141802908     -3102.4506002634      -405.6860561820       456.9427746068       899.6978548609 
  178000       301.7766771492     11570.9006122073         0.7679273793       282.8070045277      -617.6314865262       265.8565615759       299.0827360291        13.1763925492      2309.2339838252     -3102.0563605611      -402.9247999445       266.9932587066       -93.7112436195 
  179000       298.7004935556     11294.6905569056         0.7867069345       249.9075345830      -641.3522679806       227.3644262294       313.4207088658        10.0039744399      2312.4373507096     -3103.3000025509      -401.2787256745       305.9454856794       340.1982079246 
  180000       296.3316954172     11597.5475715044         0.7661629606       281.0961571798      -603.0956471493       266.9604230590       317.2419461870        11.4641515937      2275.0378478002     -3104.3813245266      -369.4186912627       188.4210681056      -547.9248029485 
  181000       305.9008538632     11123.3015308334         0.7988285995       284.5438881275      -628.2002837109       255.4056258248       299.3199766794        12.3552528242      2305.4310885874     -3102.6321835751      -398.0800440517       695.0955358861      2530.8021799476 
  182000       307.4037653166     11217.2323319424         0.7921393728       279.7283171001      -637.5002281966       273.9051381982       301.5126712474        13.0137982197      2298.0627415457     -3100.7369480063      -423.2576294012       271.0595991846       -52.9899203261 
  183000       310.0744334480     11294.2578807473         0.7867370727       309.4975919898      -615.6996684674       264.3931615863       302.2207688036         9.6682441850      2344.6015068260     -3103.4125639446      -433.1707859237        90.3936206624     -1330.1991324047 
  184000       296.1837629652     11381.2119015395         0.7807262935       288.6076076618      -595.1427971691       271.4176792465       312.2494610037         3.1172856400      2327.0304702934     -3102.9421095683      -406.0155837844       406.9180322584       712.7851025661 
  185000       302.7553571319     12024.4485319642         0.7389620705       351.9919075991      -551.3667598423       285.3705166414       305.5902713393         7.7732342064      2340.5889376829     -3102.6544699293      -388.0352497829       329.5956245239      -127.7129365451 
  186000       293.2008974291     11742.2752387860         0.7567197330       267.7984370069      -607.0517209006       261.0902655245       299.0565478691         2.6032913855      2328.1128566001     -3103.6822330902      -394.2324491897       377.3284229257       639.5947443490 
  187000       293.9780234208     11289.6423207210         0.7870587155       308.6297935220      -568.5391458165       272.2395451979       334.3436964458        16.4436070184      2343.5810101433     -3101.8790349837      -433.2679696381       233.9252214709      -453.7233291611 
  188000       311.4647289630     11306.7670172052         0.7858666735       334.1168159139      -595.2287955939       269.8050444111       309.4597057293        12.3974743644      2337.2059619129     -3103.5771794117      -420.5198025999       121.1628934413     -1291.4313092115 
  189000       298.0002222195     11445.4151811818         0.7763467941       293.3257781119      -595.8445612395       245.5866955366       318.7563440265         8.0719799991      2351.3265227565     -3102.9045797890      -416.6815237691       254.0812219293      -235.1104763106 
  190000       294.5688471843     11432.0318778966         0.7772556514       302.2739360928      -576.6578977913       273.6364458819       304.6062818440        16.3838420118      2340.5205305793     -3102.3580702967      -409.4469278117       272.2021238046      -180.3683305646 
  191000       279.9691890837     11327.2880383613         0.7844429623       229.6491160694      -605.7203914143       271.8435789283       290.5572876916        11.3851161629      2351.7424251031     -3104.2372111559      -427.0115881442       284.9294917973       334.6332971697 
  192000       297.1978574073     11227.5647654463         0.7914103877       292.1866096538      -594.5896409044       264.6334074980       327.1123253932        13.7251366211      2316.5999425723     -3103.2015727274      -413.4588802616       222.5732286936      -425.1393151543 
  193000       299.0169934035     11630.5581317825         0.7639883901       361.4475484814      -530.7566234355       271.8469090434       331.7500403758         5.8523110388      2351.7759237328     -3101.8846591768      -390.0971484495       485.6741294314       732.3827162973 
  194000       292.5854742408     11220.3635785626         0.7919183119       289.0533797575      -583.9604840655       260.0917183940       311.0619073518        10.5425553961      2336.0046287646     -3103.2059460718      -398.4553479002       626.6959956718      2063.3572920870 
  195000       297.3147741475     11692.0207503871         0.7599722557       280.0191205412      -607.1059851179       255.3581830027       295.3098064524         9.2364722864      2338.2020223763     -3103.0814652151      -402.1310040206       236.5437774123      -254.9632295024 
  196000       300.4306747721     11579.0364392681         0.7673878073       262.6751992022      -633.7471022615       246.0457074065       311.3787559378         5.3785889629      2311.0156775266     -3102.0479384894      -405.5178936060       140.6826339102      -722.4121702813 
  197000       290.2222587157     11724.4660535746         0.7578691723       301.3856674570      -564.5768554820       283.2104840300       308.2977583334         9.3742639793      2335.8804277787     -3103.0388998774      -398.3008897260       337.0356200698       208.4922873519 
  198000       297.7116963094     11743.2515380902         0.7566568216       329.0632380321      -559.2462003459       271.1456896406       312.0331719471        14.9694843883      2338.3057688430     -3102.4810922208      -393.2192229440       519.0896975223      1109.5575269798 
  199000       298.8642348955     11750.4211411721         0.7561951420       295.8972526300      -595.8511198472       265.4725922548       311.1871331175         5.4312856781      2331.8089279591     -3103.1178282728      -406.6332305839       187.5019985893      -632.5297343640 
  200000       298.6444346514     11388.0028669454         0.7802607259       337.4237706985      -553.6687638192       244.8596984066       313.7666050167        14.6605100020      2382.0892334521     -3102.7380206927      -406.3067900038       443.2955889856       637.4658364536 
  201000       299.0447123954     11541.1579723426         0.7699063998       316.2231020553      -576.0637775362       257.6118680137       333.3505781415        11.4059041584      2344.8129052228     -3102.2033222359      -421.0417108368       208.6108692193      -639.3466113072 
  202000       297.1311439871     11572.9891942478         0.7677887912       275.4675610451      -611.1096306197       279.3980011307       297.3402469028         7.9340785765      2303.6965843379     -3101.6026831368      -397.8758584308       161.8603685868      -673.1074391169 
  203000       294.6301213608     11687.0743014271         0.7602939071       235.8996961239      -643.2149670880       253.2644748675       284.8019978467        10.1738125426      2310.5161555992     -3101.8704217013      -400.1009862427        61.3292357364     -1024.2101201607 
  204000       297.0471161857     11831.1341862108         0.7510363118       281.7015397735      -604.6249305056       260.4832152235       307.1800621290        10.0964772387      2332.5153467832     -3103.2070097935      -411.6930220866       -29.2685681110     -1802.2555635341 
  205000       305.9419385054     11412.7760620477         0.7785670494       287.9049181731      -624.9618416454       262.4825234466       287.6333231275        13.1168288529      2317.1592397570     -3103.5256523905      -401.8281044390       799.8078435424      3075.5332476173 
  206000       301.6938104158     11748.2599449442         0.7563342508       314.6440675718      -585.5471664805       283.2936044454       314.3464584014        12.1348463337      2300.0086681135     -3103.2810365756      -392.0497071988       234.3772477372      -468.4752158141 
  207000       293.4430659680     11075.6501809865         0.8022654416       260.0098068547      -615.5629313258       251.0915372475       309.7883003241        17.7454194181      2332.5411666785     -3103.8938304860      -422.8355245080       476.9988315395      1343.3607284362 
  208000       305.1096482982     11520.4406606102         0.7712909293       310.5614548879      -599.8219250174       249.0855158049       314.9995376080        17.7779164769      2328.3890205908     -3104.4353917948      -405.6385237031       382.6088152578       428.8180852657 
  209000       294.3836288178     11474.5981043524         0.7743723399       315.8670746283      -562.5121063867       276.3240401260       309.7211921529        13.8358919330      2337.0022877622     -3103.1098122711      -396.2857060898       196.9455875861      -710.6355971484 
  210000       286.8603118804     11122.7053420714         0.7988714175       257.7030314743      -598.2281452255       245.0019006903       322.3151090183        11.6461319791      2331.6116222805     -3102.0928054236      -406.7101037702       246.3143915608       -70.2078283888 
Loop time of 59.7669 on 64 procs for 100000 steps with 1002 atoms

Performance: 144.562 ns/day, 0.166 hours/ns, 1673.167 timesteps/s
99.3% CPU use with 64 MPI tasks x no OpenMP threads

MPI task timing breakdown:
Section |  min time  |  avg time  |  max time  |%varavg| %total
---------------------------------------------------------------
Pair    | 11.809     | 18.306     | 24.997     |  91.3 | 30.63
Bond    | 0.47029    | 0.50349    | 0.53696    |   2.3 |  0.84
Kspace  | 16.9       | 23.612     | 30.151     |  80.3 | 39.51
Neigh   | 1.5546     | 1.5611     | 1.5708     |   0.3 |  2.61
Comm    | 12.703     | 12.838     | 13.023     |   2.1 | 21.48
Output  | 0.047072   | 0.047151   | 0.048059   |   0.1 |  0.08
Modify  | 2.0061     | 2.156      | 2.2536     |   3.2 |  3.61
Other   |            | 0.7433     |            |       |  1.24

Nlocal:    15.6562 ave 24 max 9 min
Histogram: 3 2 14 5 21 6 4 2 4 3
Nghost:    4758.78 ave 4838 max 4667 min
Histogram: 3 3 7 6 9 10 6 11 3 6
Neighs:    12087.6 ave 21459 max 6611 min
Histogram: 4 11 15 9 9 4 7 1 3 1

Total # of neighbors = 773609
Ave neighs/atom = 772.065
Ave special neighs/atom = 5
Neighbor list builds = 3790
Dangerous builds = 0
unfix equil
undump equil

# WRITE RESTART FILES, CLEANUP, AND EXIT
write_restart   md-9.end.restart
PPPM initialization ...
WARNING: Using 12-bit tables for long-range coulomb (../kspace.cpp:321)
  G vector (1/distance) = 0.186605
  grid = 8 8 8
  stencil order = 5
  estimated absolute RMS force accuracy = 0.00726209
  estimated relative force accuracy = 2.18696e-05
  using double precision FFTs
  3d grid and FFT values/proc = 343 8
write_data      md-9.end.data pair ii
PPPM initialization ...
WARNING: Using 12-bit tables for long-range coulomb (../kspace.cpp:321)
  G vector (1/distance) = 0.186605
  grid = 8 8 8
  stencil order = 5
  estimated absolute RMS force accuracy = 0.00726209
  estimated relative force accuracy = 2.18696e-05
  using double precision FFTs
  3d grid and FFT values/proc = 343 8
unfix		averages
Total wall time: 0:03:23
