
#===========================================================
# GENERAL PROCEDURES
#===========================================================
units		real	# g/mol, angstroms, fs, kcal/mol, K, atm, charge*angstrom
dimension	3	# 3 dimensional simulation
newton		on	# use Newton's 3rd law
boundary	p p p	# periodic boundary conditions
atom_style	full    # molecular + charge

#===========================================================
# FORCE FIELD DEFINITION
#===========================================================
special_bonds  lj   0.0 0.0 0.0  coul 0.0 0.0 0.0     # NO     1-4 LJ/COUL interactions
pair_style     hybrid lj/cut/coul/long 14.0 14.0 # outer_LJ outer_Coul (cutoff values, see LAMMPS Doc)
kspace_style   pppm 0.0001          # long-range electrostatics sum method
bond_style     harmonic             # parameters needed: k_bond, r0
angle_style    harmonic             # parameters needed: k_theta, theta0
dihedral_style hybrid opls            # parameters needed: V1, V2, V3, V4
pair_modify    shift yes mix arithmetic       # using Lorenz-Berthelot mixing rules

#===========================================================
# SETUP SIMULATIONS
#===========================================================

# READ IN COEFFICIENTS/COORDINATES/TOPOLOGY
read_data ${data_name}
read_data md-7.data
  orthogonal box = (-11.0397 -11.0397 -11.0397) to (11.0397 11.0397 11.0397)
  4 by 4 by 4 MPI processor grid
  reading atoms ...
  1002 atoms
  reading velocities ...
  1002 velocities
  scanning bonds ...
  1 = max bonds/atom
  scanning angles ...
  6 = max angles/atom
  scanning dihedrals ...
  3 = max dihedrals/atom
  reading bonds ...
  835 bonds
  reading angles ...
  1169 angles
  reading dihedrals ...
  501 dihedrals
  4 = max # of 1-2 neighbors
  3 = max # of 1-3 neighbors
  4 = max # of 1-4 neighbors
  5 = max # of special neighbors
include ${settings_name}
include md-7.in.settings
     # Non-bonded interactions (pair-wise)
     pair_coeff           1          1          lj/cut/coul/long     0.012538             2.455454
     pair_coeff           1          2          lj/cut/coul/long     0.002628             2.254269
     pair_coeff           1          3          lj/cut/coul/long     0.032584             3.108197
     pair_coeff           1          4          lj/cut/coul/long     0.043941             2.722123
     pair_coeff           2          2          lj/cut/coul/long     0.001000             1.873803
     pair_coeff           2          3          lj/cut/coul/long     0.004531             3.055486
     pair_coeff           2          4          lj/cut/coul/long     0.007036             2.613843
     pair_coeff           3          3          lj/cut/coul/long     0.198285             3.414293
     pair_coeff           3          4          lj/cut/coul/long     0.175461             3.207713
     pair_coeff           4          4          lj/cut/coul/long     0.195626             2.899776

     # Stretching interactions
     bond_coeff           1           366.904251           1.096103
     bond_coeff           2           612.219900           0.957501
     bond_coeff           3           368.709924           1.411527

     # Bending interactions
     angle_coeff          1           40.926667            108.205025
     angle_coeff          2           61.328715            112.232133
     angle_coeff          3           49.873049            108.741688

     # Dihedral interactions
     dihedral_coeff       1          opls                  0.105414            -0.205941             0.372587            -0.070860

# SET RUN PARAMETERS
timestep	1.0		# fs
run_style	verlet 		# Velocity-Verlet integrator
neigh_modify every 1 delay 0 check no one 10000 # More relaxed rebuild criteria can be used

#===========================================================
# RUN CONSTRAINED RELAXATION
#===========================================================

# SET OUTPUTS
thermo_style    custom step temp vol density etotal pe ebond eangle edihed ecoul elong evdwl enthalpy press
thermo_modify   format float %20.10f
thermo ${thermo_freq}
thermo 1000

# DECLARE RELEVANT OUTPUT VARIABLES
variable        my_step equal   step
variable        my_temp equal   temp
variable        my_rho  equal   density
variable        my_pe   equal   pe
variable        my_ebon equal   ebond
variable        my_eang equal   eangle
variable        my_edih equal   edihed
variable        my_evdw equal   evdwl
variable        my_eel  equal   (ecoul+elong)
variable        my_ent  equal   enthalpy
variable        my_P    equal   press
variable        my_vol  equal   vol

fix  averages all ave/time ${dump4avg} $(v_avg_freq/v_dump4avg) ${avg_freq} v_my_temp v_my_rho v_my_vol v_my_pe v_my_edih v_my_evdw v_my_eel v_my_ent v_my_P file thermo.avg
fix  averages all ave/time 100 $(v_avg_freq/v_dump4avg) ${avg_freq} v_my_temp v_my_rho v_my_vol v_my_pe v_my_edih v_my_evdw v_my_eel v_my_ent v_my_P file thermo.avg
fix  averages all ave/time 100 10 ${avg_freq} v_my_temp v_my_rho v_my_vol v_my_pe v_my_edih v_my_evdw v_my_eel v_my_ent v_my_P file thermo.avg
fix  averages all ave/time 100 10 1000 v_my_temp v_my_rho v_my_vol v_my_pe v_my_edih v_my_evdw v_my_eel v_my_ent v_my_P file thermo.avg

# INITIALIZE VELOCITIES AND CREATE THE CONSTRAINED RELAXATION FIX
velocity        all create ${ANNEAL_TEMP} ${vseed} mom yes rot yes     # DRAW VELOCITIES
velocity        all create 100.0 ${vseed} mom yes rot yes     
velocity        all create 100.0 21223 mom yes rot yes     

fix relax all nve/limit 0.01
run             10000
PPPM initialization ...
WARNING: Using 12-bit tables for long-range coulomb (../kspace.cpp:321)
  G vector (1/distance) = 0.187274
  grid = 8 8 8
  stencil order = 5
  estimated absolute RMS force accuracy = 0.00702905
  estimated relative force accuracy = 2.11678e-05
  using double precision FFTs
  3d grid and FFT values/proc = 343 8
Neighbor list info ...
  update every 1 steps, delay 0 steps, check no
  max neighbors/atom: 10000, page size: 100000
  master list distance cutoff = 16
  ghost atom cutoff = 16
  binsize = 8, bins = 3 3 3
  1 neighbor lists, perpetual/occasional/extra = 1 0 0
  (1) pair lj/cut/coul/long, perpetual
      attributes: half, newton on
      pair build: half/bin/newton
      stencil: half/bin/3d/newton
      bin: standard
Per MPI rank memory allocation (min/avg/max) = 8.566 | 8.69 | 9.165 Mbytes
Step Temp Volume Density TotEng PotEng E_bond E_angle E_dihed E_coul E_long E_vdwl Enthalpy Press 
       0       100.0000000000     10763.6412960009         0.8255209496      -315.5678389355      -613.9469249405       276.4060517172       312.6446459437         7.2262076179      2307.1170139681     -3115.4938159142      -401.8470282734      -329.4152848958       -88.2134024333 
    1000        23.0324973639     10763.6412960009         0.8255209496     -1421.5556000120     -1490.2797551307         9.0285068881        18.0101893405       -35.2066270096      2096.3232309608     -3117.8042692670      -460.6307860434     -1903.2107181090     -3068.3229881344 
    2000        18.6500155113     10763.6412960009         0.8255209496     -1459.9888210385     -1515.6365668608         8.2860954003        17.7909181617       -35.5417187478      2074.9692854605     -3118.1385204693      -463.0026266662     -1830.5671796156     -2360.7225456661 
    3000        15.9020595185     10763.6412960009         0.8255209496     -1479.5538265097     -1527.0022463570         8.2802411251        17.8555170742       -35.2261656180      2078.2855196279     -3118.2378599492      -477.9594986169     -1978.2786852173     -3177.0636109351 
    4000        14.8636680638     10763.6412960009         0.8255209496     -1492.4694114355     -1536.8194883510         8.1572290753        16.7233218995       -37.9953328243      2068.3713977957     -3118.2355512639      -473.8405530332     -1979.3948743412     -3101.8970529046 
    5000        13.9225452974     10763.6412960009         0.8255209496     -1501.5804827046     -1543.1224461116         7.9840096735        17.5014600911       -36.5924569437      2055.1098292294     -3118.2831550188      -468.8421331431     -1897.3430506533     -2521.1553650206 
    6000        13.4152525889     10763.6412960009         0.8255209496     -1509.1127659056     -1549.1410739656         8.2125266556        16.6377736087       -36.8278493944      2059.2548228812     -3118.3106815729      -478.1076661437     -1957.0669916926     -2853.6357176987 
    7000        12.3640369833     10763.6412960009         0.8255209496     -1514.4849482903     -1551.3766488344         7.8358482548        17.5182612658       -37.2430681466      2059.1438123237     -3118.4055642359      -480.2259382962     -1931.5754703056     -2657.0223978694 
    8000        11.6439421210     10763.6412960009         0.8255209496     -1520.2138961684     -1554.9569842439         7.7844869099        17.2905880948       -38.0475094754      2058.2681450594     -3118.1811913716      -482.0715034612     -1910.3606820128     -2485.3807356657 
    9000        11.5766495097     10763.6412960009         0.8255209496     -1524.3191940894     -1558.8614950864         7.9805384407        17.4961458587       -37.6514923792      2056.6824171071     -3118.3091794706      -485.0599246431     -1905.5244864075     -2428.4200824843 
   10000        11.1039493678     10763.6412960009         0.8255209496     -1528.0313811577     -1561.1632437917         7.7734469678        17.5249266082       -37.7736929962      2058.0057985186     -3118.2252791719      -488.4684437181     -1916.1494915727     -2472.4573155220 
Loop time of 12.528 on 64 procs for 10000 steps with 1002 atoms

Performance: 68.966 ns/day, 0.348 hours/ns, 798.214 timesteps/s
99.0% CPU use with 64 MPI tasks x no OpenMP threads

MPI task timing breakdown:
Section |  min time  |  avg time  |  max time  |%varavg| %total
---------------------------------------------------------------
Pair    | 0.64221    | 2.0012     | 3.2022     |  43.1 | 15.97
Bond    | 0.0077646  | 0.04793    | 0.075639   |   5.5 |  0.38
Kspace  | 1.1974     | 2.3962     | 3.7614     |  39.5 | 19.13
Neigh   | 4.5578     | 4.596      | 4.6475     |   1.1 | 36.69
Comm    | 3.314      | 3.3717     | 3.411      |   1.4 | 26.91
Output  | 0.0016735  | 0.0019074  | 0.0019228  |   0.1 |  0.02
Modify  | 0.0085475  | 0.010069   | 0.011382   |   0.6 |  0.08
Other   |            | 0.103      |            |       |  0.82

Nlocal:    15.6562 ave 25 max 3 min
Histogram: 2 1 3 6 4 15 18 8 4 3
Nghost:    4910.73 ave 5050 max 4738 min
Histogram: 5 5 5 7 8 5 4 7 7 11
Neighs:    12467.9 ave 21828 max 2362 min
Histogram: 2 5 4 11 12 6 7 8 4 5

Total # of neighbors = 797946
Ave neighs/atom = 796.353
Ave special neighs/atom = 5
Neighbor list builds = 10000
Dangerous builds not checked
unfix relax

#===========================================================
# RUN RAMPED ANNEAL
#===========================================================

# REINITIALIZE THE VELOCITIES AND CREATE THE ANNEALING FIX
velocity        all create ${ANNEAL_TEMP} ${vseed} mom yes rot yes     # DRAW VELOCITIES
velocity        all create 100.0 ${vseed} mom yes rot yes     
velocity        all create 100.0 21223 mom yes rot yes     

fix mom all momentum 1000 linear 1 1 1 angular # Zero out system linear and angular momentum every ps
fix anneal all npt temp ${ANNEAL_TEMP} ${FINAL_TEMP} 100.0 iso ${pressure} ${pressure} 1000.0 # NPT, nose-hoover 100 fs T relaxation
fix anneal all npt temp 100.0 ${FINAL_TEMP} 100.0 iso ${pressure} ${pressure} 1000.0 
fix anneal all npt temp 100.0 298.0 100.0 iso ${pressure} ${pressure} 1000.0 
fix anneal all npt temp 100.0 298.0 100.0 iso 1.0 ${pressure} 1000.0 
fix anneal all npt temp 100.0 298.0 100.0 iso 1.0 1.0 1000.0 

# CREATE COORDINATE DUMPS FOR ANNEAL
dump anneal all custom ${coords_freq} anneal.lammpstrj id type x y z mol
dump anneal all custom 1000 anneal.lammpstrj id type x y z mol
dump_modify anneal sort id format float %20.10g

# RUN RAMPED ANNEAL
run ${nSteps_ramp}
run 50000
PPPM initialization ...
WARNING: Using 12-bit tables for long-range coulomb (../kspace.cpp:321)
  G vector (1/distance) = 0.187274
  grid = 8 8 8
  stencil order = 5
  estimated absolute RMS force accuracy = 0.00702905
  estimated relative force accuracy = 2.11678e-05
  using double precision FFTs
  3d grid and FFT values/proc = 343 8
Per MPI rank memory allocation (min/avg/max) = 9.838 | 10.34 | 10.55 Mbytes
Step Temp Volume Density TotEng PotEng E_bond E_angle E_dihed E_coul E_long E_vdwl Enthalpy Press 
   10000       100.0000000000     10763.6412960009         0.8255209496     -1262.7841577867     -1561.1632437917         7.7734469678        17.5249266082       -37.7736929962      2058.0057985186     -3118.2252791719      -488.4684437181     -1474.0707859543     -1345.9747315746 
   11000        96.0304283271      9722.9312215216         0.9138819540      -988.8998846989     -1275.4345990281       111.2371928048       111.7531507712       -16.7143416128      2130.8091891500     -3118.0092258039      -494.5105643373     -1245.4702299555     -1809.3948737709 
   12000       108.1008679160      9482.2453434263         0.9370788312      -980.7147604863     -1303.2651421375        87.5525638611       112.7901708732       -15.0239009328      2150.6340864954     -3117.8265480581      -521.3915143764      -812.7954153954      1214.2654955351 
   13000       109.4788096584      9455.5712011113         0.9397223282      -985.8642621321     -1312.5261337601        94.0300896224       113.0727867812       -21.2469770704      2140.0784299257     -3117.1266447490      -521.3338182700     -1193.3129471541     -1504.3435476561 
   14000       112.5177889088      9521.5842535232         0.9332072423      -951.7261976335     -1287.4557477724        93.7570676094       113.4900827320       -12.5704765593      2149.3878385574     -3117.6834831412      -513.8367769707      -575.3866025943      2710.1592388923 
   15000       122.5965822594      9359.9048664578         0.9493271043      -918.7551512282     -1284.5577128472        94.7256318143       122.9097838639       -14.9807826466      2135.7548251899     -3118.1341918868      -504.8329791818      -783.0056214222       994.4684511859 
   16000       122.4966305366      9448.6507807600         0.9404106036      -919.7609578850     -1285.2652844670        96.0644069820       122.0206395778       -12.4642605898      2157.1385721959     -3117.8340522807      -530.1905903523      -730.1308357976      1376.1368908103 
   17000       122.7081423621      9438.5061286095         0.9414213714      -879.5687168007     -1245.7041504344       103.4317614040       134.8613949308        -9.9673489208      2157.9445137780     -3116.8127149688      -515.1617566577     -1030.5687719797     -1096.9780924501 
   18000       127.3970913516      9497.9213927041         0.9355322092      -862.6215827294     -1242.7478595012       106.0957034663       140.5402786709       -11.0267803027      2156.6341242954     -3117.4933366887      -517.4978489424      -821.0984176964       299.7684961131 
   19000       136.3597194882      9483.1052998825         0.9369938541      -824.5362125555     -1231.4050972434       106.8269466534       138.5029597198       -14.5867020776      2169.0350124432     -3117.5007724997      -513.6825414824      -685.0052685380      1008.8905872271 
   20000       137.4769014058      9381.1744956432         0.9471747261      -812.9914617173     -1223.1937835999       113.8748776460       151.1284268621       -10.9194442417      2151.8552321266     -3117.5394952009      -511.5933807921      -602.6910849647      1537.1170757485 
   21000       139.7846718286      9462.0396556577         0.9390799137      -784.1772580057     -1201.2654841828       121.5674750684       148.6013651770        -5.4107014580      2165.1481839496     -3117.4078459363      -513.7639609835     -1033.3632249224     -1805.7720548130 
   22000       142.6060718575      9434.7366420410         0.9417975001      -764.3828750229     -1189.8895688189       119.3300618391       161.7034400493        -7.5379146138      2173.2249164577     -3117.0649981293      -519.5450744219     -1147.0274139520     -2780.9286616291 
   23000       147.4242860333      9524.8630724840         0.9328859970      -746.4535913643     -1186.3368285800       122.0046034170       152.9779658154        -6.9079165029      2182.4490313477     -3117.9699408963      -518.8905717609      -664.5766677618       589.4227385502 
   24000       160.2102785738      9460.1719459125         0.9392653151      -700.1658765646     -1178.1998414591       132.4397674280       166.4944899340        -4.9183396437      2170.1257886358     -3117.0338306842      -525.3077171289     -1076.5145307993     -2727.8183584610 
   25000       162.5626024310      9670.1654557565         0.9188685989      -671.3556347934     -1156.4084421130       138.3094375563       173.4061233522       -11.8593800007      2151.0458207239     -3117.2559713978      -490.0544723469      -602.0928108900       491.1231431570 
   26000       170.0937485781      9591.4220623182         0.9264123011      -637.2133827896     -1144.7375551487       140.0725142928       174.8346753127        -8.1506583756      2173.5635030855     -3117.0589701615      -507.9986193026      -726.3247122774      -637.0507503291 
   27000       167.5153993265      9814.3798398505         0.9053665671      -616.6640702373     -1116.4949876655       136.2134156883       177.0218577294        -4.1125580016      2190.9493769547     -3117.5710961888      -498.9959838474      -732.2639223619      -807.6413144551 
   28000       169.7562899011      9836.5387447983         0.9033270355      -584.3065476212     -1090.8238138641       147.5917588371       182.7913622711        -2.0085881218      2190.9331499788     -3116.3387481726      -493.7927486566      -436.2770785092      1031.8818777252 
   29000       170.7840806894      9699.8386491024         0.9160576485      -605.8458894804     -1115.4298684833       146.4513944241       182.5077489430        -7.1328545142      2196.6875023120     -3116.7223052545      -517.2213543938      -643.7090217565      -267.6554797488 
   30000       183.4753500103      9694.5958245063         0.9165530513      -532.3100627086     -1079.7621351136       154.2712543677       193.5788741665         2.0407553620      2202.8433313960     -3117.1769696584      -515.3193807475      -700.3635463419     -1188.6169590316 
   31000       173.5303818536      9702.9866140621         0.9157604495      -556.0066411121     -1073.7850084279       152.7553869170       196.0639465470         2.6179755050      2188.8640002103     -3117.4352870481      -496.6510305590      -376.0219854724      1271.9034924410 
   32000       178.5665169870      9761.7857130642         0.9102444619      -508.7072005548     -1041.5123418515       159.0430683237       215.8042418598         4.9779506152      2192.0013468249     -3116.9913818782      -496.3475675969      -728.6713353798     -1545.0648605830 
   33000       195.3753761737      9759.5441245974         0.9104535284      -459.9214129419     -1042.8806746480       156.1388921839       199.7694298883        -0.5742230292      2205.9160033249     -3117.2274512424      -486.9033257735       -99.3779469127      2533.0992604378 
   34000       209.4308109768      9859.5449915450         0.9012192136      -403.7917797582     -1028.6895193637       154.6975657888       210.9696387143        -0.3648593588      2187.4627694621     -3117.2101826804      -464.2444512896      -168.8998592313      1633.5608489689 
   35000       198.1418536898     10037.7980698912         0.8852151958      -402.4107783279      -993.6246303608       171.9968562021       211.7022699742         1.3945053737      2242.6966423882     -3116.5964080635      -504.8184962355      -524.8992394436      -836.7213183621 
   36000       203.4029274203     10118.6045844031         0.8781459251      -377.7257944298      -984.6375901738       161.3553931905       223.1650587402        -4.3460074550      2233.8328478241     -3116.7048836985      -481.9399987750      -126.1517761622      1704.7836531115 
   37000       205.6968027864      9936.1744400777         0.8942688594      -415.3528323553     -1029.1090724509       160.6093568185       207.7221463456         0.6535215329      2206.7925036704     -3117.5645801628      -487.3220206556      -544.1768367255      -888.9998708142 
   38000       216.0738876435     10145.1738291759         0.8758461445      -319.5572861180      -964.2765771641       174.4526597397       232.3253327650         1.2513511729      2229.7043919653     -3116.0763692812      -485.9339435258      -465.9293935030      -989.2884609560 
   39000       205.0514752684     10324.0116209109         0.8606742911      -333.7639472695      -945.5946650152       190.4446451142       226.1400240584         1.7791431563      2228.3389029878     -3116.0388801030      -476.2585002289      -617.8778354800     -1886.9834430083 
   40000       217.4792708854     10468.9941006074         0.8487550282      -227.8914190815      -876.8040797998       187.2559468723       253.0492489872         4.9737888151      2263.2321176881     -3116.2908794807      -469.0243026819      -268.7788142414      -267.7987830205 
   41000       233.2764726224     10830.4413826889         0.8204292946      -180.5009913766      -876.5491982521       184.5611226329       260.0169620540         7.0018935560      2200.5575600219     -3117.1904692447      -411.4962672722      -134.4177335044       291.7568950956 
   42000       232.2960003734     10444.2589470061         0.8507651360      -176.4824126659      -869.6050954063       202.0455273737       237.6308875540         5.9828036122      2243.6069032650     -3116.5826587367      -442.2885584746       109.1722645060      1875.3736909814 
   43000       228.2553046786     10476.7457714423         0.8481270403      -158.1975179516      -839.2636098095       211.8945681680       244.0474011356         3.7220664294      2273.9617292402     -3117.1174119796      -455.7719628030      -218.7126791701      -396.0608359449 
   44000       233.1499332138     10540.5670454701         0.8429917807      -152.9952114602      -848.6658512049       201.2231366594       240.7764997875        -1.5675775160      2295.2668853428     -3116.1134172398      -468.2513782389      -329.7041369681     -1149.5255318013 
   45000       239.2633870011     10842.3244200378         0.8195301154      -100.3341017389      -814.2460090173       210.2557948362       264.9656149107        -1.8740567840      2269.7348654686     -3116.1064681321      -441.2217593167      -591.7428540508     -3107.7394438486 
   46000       240.7373059636     10479.6082383382         0.8478953775       -55.8808592206      -774.1906324279       219.7156340915       286.7512423215         2.5701499434      2279.3239005945     -3115.7126740298      -446.8388853490       -51.9513769684        25.7107292257 
   47000       249.8841370019     10362.0345827646         0.8575160904       -86.1470806439      -831.7490847017       214.0009034649       250.5923686795         2.7475985333      2279.4835094255     -3116.9120650204      -461.6613997846         9.8835731567       635.4610834322 
   48000       256.0197915591     10587.8404949654         0.8392279226         3.0180574363      -760.8914566097       226.1035691941       275.3279426664         0.1802726770      2295.1131718123     -3114.8388988806      -442.7775140790      -152.1803929179     -1005.0880305857 
   49000       245.8194270528     10678.5015817478         0.8321028297       -14.2902699958      -747.7640296588       236.2151981589       283.3516255637        14.2601341146      2297.3697451218     -3116.2098895154      -462.7508431025      -267.1043252140     -1623.3606300778 
   50000       248.9593585004     10618.7372568413         0.8367860668       -25.0883701557      -767.9310285731       232.4821649177       267.5979100451        11.1086242386      2283.5740349903     -3116.7770951953      -445.9166675697       249.2232187120      1771.3133313165 
   51000       270.0500047535     10507.2346622220         0.8456660262        45.6509114503      -760.1218244896       235.4617848826       271.2289971162         0.9755457422      2301.9964756385     -3117.2000076368      -452.5846202322        30.2058655110      -100.7917262445 
   52000       273.0044000329     10748.2370151079         0.8267040791        78.4562314900      -736.1318020815       232.4495073345       293.0663547403         6.9442008944      2296.6648026540     -3115.6725342320      -449.5841334728      -147.7604003849     -1443.1497809825 
   53000       270.0322392937     10793.7800641082         0.8232159013       106.9578355211      -698.7618920024       245.4905972500       305.1426706013        14.6810948824      2298.9506935989     -3116.5781496484      -446.4487986866        22.4579989556      -536.7924699826 
   54000       262.2212428589     10774.5466141166         0.8246854092        76.2186717683      -706.1946759850       240.7989848706       303.7587171663         9.5597385341      2299.5819672286     -3116.2394862550      -443.6545975297       120.5214592109       281.9396512737 
   55000       278.5921558729     10651.4886408164         0.8342131023       128.3224717455      -702.9382566296       227.3272943820       305.5138237141         4.4859147513      2331.2997163812     -3116.7631790543      -454.8018268040       365.3362719906      1525.7642536143 
   56000       277.2539461513     10782.8781413443         0.8240482056       182.5873101249      -644.6804803142       248.3960903555       337.0944943338         8.0608148920      2316.1086239909     -3116.6655330259      -437.6749708605       463.7706558897      1788.0473182352 
   57000       292.1347826182     10936.0876718839         0.8125036713       244.9898739356      -626.6792203432       249.5359049444       335.4598902526        -0.4194448460      2349.1064515618     -3116.5271781256      -443.8348441304        91.0582754949      -965.1390918013 
   58000       280.3448500120     10762.1216332970         0.8256375171       207.4337690653      -629.0566320625       273.3943862553       310.4300600580         4.4900392510      2327.7895429709     -3115.8325415633      -429.3281190344       113.0375532269      -601.4240614052 
   59000       289.5848913128     10936.8147068361         0.8124496594       223.7908252329      -640.2699266749       256.7491590108       325.0425381414         4.9423055045      2306.5946171788     -3114.6946675164      -418.9038789940       415.1963288940      1200.0177711811 
   60000       291.3591142053     11012.1989173188         0.8068880203       257.2934593709      -612.0612025871       279.8246134068       306.2481911555        13.6184695401      2322.9864777393     -3116.1692467499      -418.5697076790       203.7089191364      -333.6488034738 
Loop time of 67.0463 on 64 procs for 50000 steps with 1002 atoms

Performance: 64.433 ns/day, 0.372 hours/ns, 745.753 timesteps/s
99.3% CPU use with 64 MPI tasks x no OpenMP threads

MPI task timing breakdown:
Section |  min time  |  avg time  |  max time  |%varavg| %total
---------------------------------------------------------------
Pair    | 7.6147     | 11.577     | 16.472     |  68.5 | 17.27
Bond    | 0.22022    | 0.27817    | 0.32418    |   4.7 |  0.41
Kspace  | 7.6067     | 12.527     | 16.534     |  66.2 | 18.68
Neigh   | 22.905     | 23.063     | 23.322     |   2.2 | 34.40
Comm    | 17.418     | 17.695     | 17.894     |   2.8 | 26.39
Output  | 0.031201   | 0.03126    | 0.031688   |   0.0 |  0.05
Modify  | 1.1032     | 1.1767     | 1.25       |   2.9 |  1.76
Other   |            | 0.6976     |            |       |  1.04

Nlocal:    15.6562 ave 22 max 10 min
Histogram: 4 2 8 10 2 23 8 4 2 1
Nghost:    4805.03 ave 4901 max 4685 min
Histogram: 4 5 6 8 7 5 4 8 7 10
Neighs:    12223.8 ave 22165 max 5643 min
Histogram: 4 8 11 10 11 9 4 5 1 1

Total # of neighbors = 782324
Ave neighs/atom = 780.762
Ave special neighs/atom = 5
Neighbor list builds = 50000
Dangerous builds not checked
unfix anneal

# RUN EQUILIBRATION PHASE AT FINAL TEMP
fix anneal all npt temp ${FINAL_TEMP} ${FINAL_TEMP} 100.0 iso ${pressure} ${pressure} 1000.0 # NPT, nose-hoover 100 fs T relaxation
fix anneal all npt temp 298.0 ${FINAL_TEMP} 100.0 iso ${pressure} ${pressure} 1000.0 
fix anneal all npt temp 298.0 298.0 100.0 iso ${pressure} ${pressure} 1000.0 
fix anneal all npt temp 298.0 298.0 100.0 iso 1.0 ${pressure} 1000.0 
fix anneal all npt temp 298.0 298.0 100.0 iso 1.0 1.0 1000.0 
run ${nSteps_ramp}
run 50000
PPPM initialization ...
WARNING: Using 12-bit tables for long-range coulomb (../kspace.cpp:321)
  G vector (1/distance) = 0.186809
  grid = 8 8 8
  stencil order = 5
  estimated absolute RMS force accuracy = 0.0071904
  estimated relative force accuracy = 2.16537e-05
  using double precision FFTs
  3d grid and FFT values/proc = 343 8
Per MPI rank memory allocation (min/avg/max) = 10.44 | 10.55 | 10.55 Mbytes
Step Temp Volume Density TotEng PotEng E_bond E_angle E_dihed E_coul E_long E_vdwl Enthalpy Press 
   60000       291.3591142053     11012.1989173188         0.8068880203       257.2927497017      -612.0619122563       279.8246134068       306.2481911555        13.6184695401      2315.2676205858     -3108.4510992656      -418.5697076790       203.7040671767      -333.6745958064 
   61000       307.6128736806     11553.8188356093         0.7690627238       311.3457510583      -606.5067298636       266.2610063995       325.5241663829         2.1776554139      2331.1871433156     -3105.6479973854      -426.0087039901       487.3053543429      1044.2669452343 
   62000       284.9575978482     10930.5620800365         0.8129144063       288.6183373081      -561.6355386533       283.7320914997       327.9652003640        15.6520674692      2334.1544890018     -3107.6315798303      -415.5078071578       418.2727185070       813.3337838915 
   63000       296.7258875471     11273.6245921165         0.7881769799       333.4051293555      -551.9628618478       270.9701408095       329.1131130155        14.6171427946      2379.7455964337     -3107.9710175310      -438.4378373701       218.9641066020      -696.0529399455 
   64000       289.8475486072     10718.2502920543         0.8290169703       256.8644818762      -607.9799844658       279.4440334063       327.8139789740        10.2812982692      2348.6318642721     -3108.5830465799      -465.5681128075       381.9436734379       800.1755586199 
   65000       282.5794468795     11298.0613607099         0.7864722185       266.6140549067      -576.5439159302       288.6300065528       314.4808309575        14.6421070202      2335.1132601418     -3107.4985560886      -421.9115645140       267.7004539141         6.5934017894 
   66000       293.2759560324     10968.7982924644         0.8100806621       287.6463430120      -587.4277740700       284.3248279013       310.4457470174        12.9940473510      2354.4195844405     -3108.9535761434      -440.6584046369       141.1584066154      -915.7289018831 
   67000       295.1871547765     11178.0065549904         0.7949191423       282.7504662667      -598.0262681595       262.8052152937       333.9580784535         3.8903262315      2335.4028436673     -3108.5055325905      -425.5771992150       182.4855492654      -615.0476299208 
   68000       303.9329948428     11025.0185492518         0.8059497899       311.5472573641      -595.3252347155       265.5322079709       333.9355213099        18.2451872069      2331.6230888042     -3108.6941792343      -435.9670607732       -91.5217197258     -2506.8257954629 
   69000       283.5142762624     11211.6562859272         0.7925333382       259.4559194171      -586.4913867885       259.1026656981       330.0659068182         9.1965322089      2358.2790942038     -3107.9020084750      -435.2335772425        36.7596366672     -1361.9692528142 
   70000       293.2638761407     11117.0955082052         0.7992745387       272.4495772289      -602.5884959825       269.2984573984       318.3661669099        13.9675965974      2333.6342189379     -3109.2734737462      -428.5814620799       397.1944105159       769.4055962387 
   71000       303.3594891738     11193.7774713838         0.7937991805       374.1133866406      -531.0478844655       282.7532516995       345.3783889422        11.7633740571      2328.8276354517     -3108.2407493438      -391.5297852723       449.1175367004       459.4441600411 
   72000       293.4524588568     11063.6362087842         0.8031366195       310.2134071989      -565.3873573974       288.6453665693       326.4389317553         9.4621424618      2349.2796551150     -3107.7816098977      -431.4318434011        24.4876993306     -1770.8245773415 
   73000       308.7272204039     11392.8196237679         0.7799308404       311.9590304626      -609.2184280272       252.5531962950       311.8223369566         5.2535648380      2359.1267303689     -3108.3467284010      -429.6275280847       672.0468145099      2167.2114040562 
   74000       301.5058656801     11366.4111325982         0.7817429160       343.5032286309      -556.1272176370       260.6019831970       344.1264368390         7.8494457551      2337.2030222264     -3107.3512959262      -398.5568097282      -272.3907394511     -3715.4096140624 
   75000       300.2100101362     11668.7295360543         0.7614891884       310.0083639384      -585.7555204016       256.2455895792       323.6493420066         0.8591600892      2320.9183489519     -3107.7784963029      -379.6494647255       183.5834187267      -742.9050508747 
   76000       292.0357211513     11348.0587372429         0.7830071724       236.5662953127      -634.8072202668       247.1463802735       308.5113538784         8.2630090912      2342.7280725229     -3107.6026335032      -433.8534025296       450.8266549844      1294.6261206603 
   77000       289.1207035268     11381.6097487962         0.7806990030       315.9265591518      -546.7491534827       272.7804068580       342.1021141441        17.0864148230      2350.1507706972     -3107.5143439682      -421.3545160368       295.9127374212      -120.5731056018 
   78000       310.1886347796     11364.8864490830         0.7818477926       385.7687730071      -539.7692403395       294.4239025104       321.3836154101        11.7119885826      2344.8730022263     -3108.0047335892      -404.1570154798       350.2526770640      -214.2812791590 
   79000       293.3753059400     10911.1493755026         0.8143607129       295.6744470367      -579.6961093914       274.2695947047       319.9756840137        11.0206232472      2339.4523210810     -3107.4260244554      -416.9883079826      -130.4111638480     -2677.6294583837 
   80000       304.1868859405     11275.1935217228         0.7880673060       266.4305590375      -641.1994909787       242.9547345809       296.8049804118        11.9688013114      2330.1315493015     -3108.4224536528      -414.6371029315       459.1787046505      1172.1692238284 
   81000       306.4117948860     11044.2873662193         0.8045436604       357.1772447136      -557.0914682787       271.7948518777       318.6672701502         8.6779999038      2375.8248278049     -3107.3800575488      -424.6763604665       646.7283325826      1797.6767987250 
   82000       285.1697490166     10835.4437845589         0.8200505268       281.6298996568      -569.2569910217       272.1936629943       336.2052996215        15.8259161724      2363.3020431090     -3106.9578235093      -449.8260894098       381.1993191947       630.0911541726 
   83000       305.3726285066     11704.9581909280         0.7591322616       381.7231351799      -529.4449226675       269.4613339480       327.0165039603        13.2780581968      2372.8703007732     -3107.7213834661      -404.3497360797       334.2165449791      -278.2967302394 
   84000       304.9601805567     11289.4758452649         0.7870703215       371.5630034364      -538.3743959880       263.8926888858       320.0721001620        13.0033831789      2400.1841367341     -3106.5974096042      -428.9292953446       347.7680130245      -144.5226332779 
   85000       301.7003244670     11741.6289970005         0.7567613817       358.0459035022      -542.1647671166       264.4249289370       323.2367029644         0.3134914387      2380.8322404572     -3108.8604942847      -402.1116366293       660.2336810091      1764.7071748997 
   86000       297.3978741224     11377.2998207905         0.7809947460       329.0478525607      -558.3252060439       275.8530962465       309.3294478971         8.0077316179      2385.7569571718     -3107.4380785111      -429.8343604661       583.4358301747      1533.1388549828 
   87000       285.7328755274     11329.8912503728         0.7842627248       306.2989056210      -546.2682367934       276.3131870387       318.1712812454        19.8266282908      2372.5476246805     -3108.0096713158      -425.1172867330        39.2978527371     -1615.8883254043 
   88000       293.7669370832     11265.7920325984         0.7887249612       330.7171661606      -545.8219356931       275.1966436232       317.2363033993        13.8250139926      2374.7204927789     -3106.8897533729      -419.9106361142        86.8247415923     -1484.4333123461 
   89000       301.2915817363     11391.1315122402         0.7800464224       284.6062337483      -614.3848340464       251.0201871823       295.3051495279        13.5534002910      2338.5509702138     -3107.6169195161      -405.1976217452       726.1218358514      2657.6837429581 
   90000       297.6272486267     11506.1941713161         0.7722459096       353.7889640307      -534.2685001234       257.0775224761       305.7043107999        16.7348363075      2399.7838925463     -3106.2254766144      -407.3435856389       283.0893267683      -421.3175960685 
   91000       300.0031936948     11548.9478492281         0.7693870905       343.0229579908      -552.1238293414       266.2843565235       318.4359579791        17.5014191996      2378.3032665562     -3107.1682031752      -425.4806264246        80.1584197214     -1560.6793782557 
   92000       283.7117401093     11894.0182993314         0.7470655551       298.9274962373      -547.6090007898       264.0553476414       314.3456488950        16.6715671106      2387.9043506670     -3107.3366920471      -423.2492230567      -209.4985448257     -2931.0504577226 
   93000       302.8681671283     11661.9181600247         0.7619339513       352.7199622572      -550.9753066203       274.8766481617       293.3330761430        13.9314502817      2371.8837781616     -3105.4362861719      -399.5639731964       293.7950017597      -346.4602554919 
   94000       288.2154736971     11959.5105602149         0.7429745004       326.8797200016      -533.0949761408       277.6393909283       305.0800318238        23.1573864956      2361.1741517904     -3104.9606616375      -395.1852755414        13.0478767209     -1799.3171176985 
   95000       282.0654245828     11367.0402092681         0.7816996527       274.6946326490      -566.9296031574       257.6898498695       340.4892346977         5.2682679828      2348.2580941734     -3105.7320670678      -412.9029828129       288.5869398093        83.8013647473 
   96000       296.0375527472     11356.3983545738         0.7824321679       324.4308678936      -558.8832762250       272.4008449730       323.9214111213         7.4077640837      2348.2318481292     -3108.0217908570      -402.8233536752       704.8135404797      2296.6997227766 
   97000       285.8301894256     11529.8898395468         0.7706588274       300.0932810938      -552.7642256406       257.9559822017       317.0603992934        13.3191941542      2387.7392569998     -3107.3820804433      -421.4569778464       609.9574510944      1842.7665223093 
   98000       291.6384663836     11455.2034206771         0.7756834215       318.7426631684      -551.4455272660       281.5081888659       301.4355370761         8.6898395645      2367.8770703908     -3107.0048507024      -403.9513124610       297.0333945658      -129.9470715812 
   99000       301.0698289889     11177.3585745474         0.7949652258       289.0081368150      -609.3212671590       261.3001659835       297.2631181479        16.4848747670      2327.6673230680     -3106.7772889636      -405.2594601617       411.7849741890       753.1844917832 
  100000       295.2954759243     10739.4528930897         0.8273802653       261.7233596005      -619.3765824764       255.5893153007       304.5138735827        13.7638071636      2362.4249191146     -3108.9566414856      -446.7118561524       259.8293045865       -12.0930136318 
  101000       302.6747322831     11126.7486215438         0.7985811207       329.3285492666      -573.7895504878       268.7175259918       303.1681764308        14.6743679503      2342.4567695260     -3106.0722797578      -396.7341106290       452.6320196722       759.8557150237 
  102000       286.0185442040     11352.0822837220         0.7827296492       280.4254585337      -572.9940594670       276.3066738965       303.6128905687         8.5277441049      2378.7692115242     -3107.1018190298      -433.1087605315      -149.2903918481     -2595.5533112466 
  103000       302.3187049683     11042.8847733129         0.8046458481       281.6211069984      -620.4346817081       246.8496401930       307.5840484229        17.2984461000      2363.8446374852     -3106.7951578564      -449.2162960527       365.5627220267       521.2173823403 
  104000       292.4813469426     11485.3973121028         0.7736442321       285.4381669394      -587.2650028030       259.1148992375       314.3326379308        16.5535643230      2346.1572446252     -3106.6966546000      -416.7266943195       313.8022450911       169.3350111402 
  105000       290.5737904051     11102.9431266467         0.8002933350       311.7600674721      -555.2513525087       290.5297368683       318.4357414666        16.0408654120      2353.9370748269     -3106.5828395936      -427.6119314890       162.6952897182      -920.5789335604 
  106000       298.5657007732     11616.2234261612         0.7649311706       300.5899599568      -590.2676491347       275.2346428095       299.2266130919        11.5687471754      2363.2141616163     -3107.6418472794      -431.8699665484      -191.9627622770     -2907.4474748343 
  107000       298.1780193287     11039.1200610745         0.8049202594       314.3920556533      -575.3087930874       277.0062844017       309.5345446797         7.2394417765      2349.4791249271     -3105.6072168522      -412.9609720202       632.4739790153      1975.7347691133 
  108000       295.6920610978     11435.1407605283         0.7770443381       321.4840363136      -560.7992329793       281.0286795527       321.9306018356        21.8619592140      2330.7286552349     -3107.9457253172      -408.4034034994       490.8233695413      1015.4076735688 
  109000       307.2779573849     11226.5211763962         0.7914839552       344.5330370366      -572.3201237032       280.3068181735       326.0671188279        10.7634327355      2359.0060675654     -3109.3813108949      -439.0822501105       196.6583810996      -903.1765599476 
  110000       313.0965859453     11573.1729831266         0.7677765982       345.8914350463      -588.3232964102       267.1397294977       315.2382906516        10.8336551957      2342.2475634247     -3109.0509807770      -414.7315544029        75.9452545007     -1599.3696596688 
Loop time of 58.7425 on 64 procs for 50000 steps with 1002 atoms

Performance: 73.541 ns/day, 0.326 hours/ns, 851.172 timesteps/s
99.3% CPU use with 64 MPI tasks x no OpenMP threads

MPI task timing breakdown:
Section |  min time  |  avg time  |  max time  |%varavg| %total
---------------------------------------------------------------
Pair    | 6.4138     | 9.809      | 13.195     |  64.2 | 16.70
Bond    | 0.2436     | 0.26214    | 0.28574    |   2.0 |  0.45
Kspace  | 8.1172     | 11.517     | 14.925     |  59.4 | 19.61
Neigh   | 20.225     | 20.39      | 20.558     |   1.7 | 34.71
Comm    | 14.975     | 15.148     | 15.322     |   2.4 | 25.79
Output  | 0.028098   | 0.028168   | 0.028843   |   0.1 |  0.05
Modify  | 1.0452     | 1.1043     | 1.1739     |   2.7 |  1.88
Other   |            | 0.4842     |            |       |  0.82

Nlocal:    15.6562 ave 21 max 8 min
Histogram: 1 1 1 11 11 5 16 6 5 7
Nghost:    4576.62 ave 4655 max 4509 min
Histogram: 3 7 7 10 9 9 5 11 0 3
Neighs:    11623.9 ave 18460 max 5929 min
Histogram: 3 9 7 10 8 7 10 4 4 2

Total # of neighbors = 743928
Ave neighs/atom = 742.443
Ave special neighs/atom = 5
Neighbor list builds = 50000
Dangerous builds not checked
unfix anneal
undump anneal

# RETURN TO LESS FREQUENT NEIGHBOR BUILDS
neigh_modify every 1 delay 10 check yes one 10000 # More relaxed rebuild criteria can be used

#===========================================================
# RUN EQUILIBRIUM SIM
#===========================================================

# UPDATE RUN PARAMETERS AND CREATE FIX
fix equil all npt temp ${FINAL_TEMP} ${FINAL_TEMP} 100.0 iso ${pressure} ${pressure} 1000.0 # NPT, nose-hoover 100 fs T relaxation
fix equil all npt temp 298.0 ${FINAL_TEMP} 100.0 iso ${pressure} ${pressure} 1000.0 
fix equil all npt temp 298.0 298.0 100.0 iso ${pressure} ${pressure} 1000.0 
fix equil all npt temp 298.0 298.0 100.0 iso 1.0 ${pressure} 1000.0 
fix equil all npt temp 298.0 298.0 100.0 iso 1.0 1.0 1000.0 

# CREATE COORDINATE DUMPS FOR EQUILIBRIUM
dump equil all custom ${coords_freq} equil.lammpstrj id type x y z mol
dump equil all custom 1000 equil.lammpstrj id type x y z mol
dump_modify equil sort id format float %20.10g

# RUN EQUIL
run		${nSteps_equil}
run		100000
PPPM initialization ...
WARNING: Using 12-bit tables for long-range coulomb (../kspace.cpp:321)
  G vector (1/distance) = 0.185793
  grid = 8 8 8
  stencil order = 5
  estimated absolute RMS force accuracy = 0.00755401
  estimated relative force accuracy = 2.27487e-05
  using double precision FFTs
  3d grid and FFT values/proc = 343 8
Per MPI rank memory allocation (min/avg/max) = 11.05 | 11.05 | 11.05 Mbytes
Step Temp Volume Density TotEng PotEng E_bond E_angle E_dihed E_coul E_long E_vdwl Enthalpy Press 
  110000       313.0965859453     11573.1729831266         0.7677765982       345.8933368078      -588.3213946487       267.1397294977       315.2382906516        10.8336551957      2325.4017619378     -3092.2032775286      -414.7315544029        75.9541580739     -1599.3281755288 
  111000       297.6575774842     10910.1272928078         0.8144370038       282.2391157728      -605.9088433491       261.0099133478       314.1547126403        10.4932851327      2336.9437042635     -3092.0327597492      -436.4776989842       275.5702272111       -41.9129040582 
  112000       301.5562372575     11251.4700419420         0.7897289288       315.4642051028      -584.3165394172       257.3857976951       322.4712550343         7.3800323114      2338.1867501799     -3090.7741018537      -418.9662727842       300.9797709128       -88.2706607117 
  113000       290.1445501272     11288.4993758573         0.7871384041       338.1977061755      -527.5329505874       281.3102150502       333.1588149074         0.4992862472      2348.6611769989     -3090.6470572350      -400.5153865562       185.8925665600      -925.1293437748 
  114000       302.2125038922     11134.7005701089         0.7980108066       314.1042293402      -587.6346775660       271.5263460869       314.2945041043         8.1712675281      2339.2340990202     -3091.7503465032      -429.1105478022       519.8246414239      1266.8434594095 
  115000       289.5492628999     11353.1614258134         0.7826552491       299.8316394630      -564.1228047121       279.4843712179       327.8059064260        15.7477246059      2307.4137641446     -3091.2198750756      -403.3546960309       934.2832216505      3831.8260221269 
  116000       293.9540938606     11339.1114982477         0.7836250120       295.8615526658      -581.2359858697       279.0608299964       318.6962486904        15.7196567164      2318.9946260629     -3091.9512915479      -421.7560557879        99.6699715145     -1186.3844674222 
  117000       321.4879053387     11264.5224806940         0.7888138533       344.6761306685      -614.5765428976       260.6679107097       315.2893141702         6.0250058449      2310.3813028179     -3091.4525343923      -415.4875420479       408.6146945139       389.2012278167 
  118000       301.7338105507     10743.5757814464         0.8270627549       277.8260382512      -622.4845478381       258.7433450690       323.9800108511         9.7592302591      2316.4540361191     -3091.2445856151      -440.1765845213       730.8279716970      2891.1812231043 
  119000       295.8222120840     10906.6890884198         0.8146937454       280.9341722556      -601.7374403604       249.4984243242       327.7495682483        15.2502338651      2338.7359759858     -3091.5619419199      -441.4097008640       174.5871023566      -668.5851190728 
  120000       300.9326799697     11181.8596210474         0.7946452276       359.5871994589      -538.3329805251       279.0024926531       336.2754449452        13.6039014902      2343.1677384238     -3091.9904771541      -418.3920808833       651.3813897667      1789.3146411849 
  121000       286.6625303516     11215.7602637115         0.7922433410       308.4525056917      -546.8885322901       256.8466251854       334.1212522604        16.7247091528      2365.9009271010     -3090.5665120449      -429.9155339449       273.6631473030      -212.6874244358 
  122000       286.5175140010     11349.2907930610         0.7829221707       280.6021249592      -574.3062145614       281.1962665362       307.5203105485        14.3641884222      2317.9689523307     -3090.1992589851      -405.1566734140      -122.6313441321     -2436.1945036638 
  123000       305.0342873807     10985.0866589773         0.8088794981       326.6803657504      -583.4781529380       277.5462932885       306.8389641554        18.9096487375      2340.5712072456     -3091.0111568092      -436.3331095558       509.7050019885      1142.4315166906 
  124000       301.5780698818     11300.1301366283         0.7863282348       317.0327166909      -582.8131718139       276.9467468840       308.1970497640         9.3347519255      2348.0827986101     -3090.4147639503      -434.9597550473       351.2222357713       207.4596579518 
  125000       311.0080671890     11225.4312225866         0.7915608058       346.6393135533      -581.3437147271       295.4436290842       302.6179861721         3.9695888656      2341.3300574989     -3091.0207667875      -433.6842095604        55.4965202250     -1778.3904672654 
  126000       297.9558486669     11014.9965417869         0.8066830843       372.8276890900      -516.2102488607       277.3674814206       339.5448851443        13.5208535441      2377.1974430070     -3090.5906557158      -433.2502562610       428.1490898030       344.3760284518 
  127000       291.9945657660     11112.7572829633         0.7995865614       316.2123851639      -555.0383313529       300.4779041011       315.5475733530        12.3286859603      2343.5917855110     -3091.7442827903      -435.2399974881      -201.7712109425     -3196.0847588626 
  128000       302.0999463186     11206.4635403053         0.7929005749       309.6006865867      -591.8023720604       282.2534802150       314.9248266796         8.7947506176      2321.1897314628     -3091.6891854587      -427.2759755767       247.7209299717      -378.6205002513 
  129000       289.5239597668     11369.8118892012         0.7815090936       296.6288460798      -567.2500988380       277.9720085800       313.9403331644        11.2767580776      2347.0056414130     -3090.8034818605      -426.6413582125       207.2566027391      -538.9810430093 
  130000       295.9769116426     11232.1033173489         0.7910906028       309.5320301413      -573.6011736036       268.2769547665       323.2662971085         9.8978910641      2327.4293039088     -3090.6841280279      -411.7874924237       381.8430555827       441.4357900255 
  131000       301.2215737368     11484.6081642624         0.7736973919       321.4118759486      -577.3703026172       279.1716796919       314.7715900823        11.8290308892      2311.1846863505     -3091.0278465744      -403.2994430567      -217.1987822984     -3215.7543914320 
  132000       308.0956149788     11289.4367390550         0.7870730479       337.3317824671      -581.9610975282       274.0302394358       303.7582129165        19.7137375006      2337.3216857671     -3089.4743892510      -427.3105838971       788.7395141490      2741.7056665989 
  133000       294.0472751357     10847.8604167640         0.8191118840       264.2939375648      -613.0816344075       287.7760940381       298.5516965184         3.2451693025      2303.2270414767     -3090.5610261138      -415.3206096294       475.3958587877      1334.3575217226 
  134000       289.5345187497     11342.8231262626         0.7833685922       292.8218114546      -571.0886392599       291.6928836677       292.0829716450        20.7025263102      2340.6361200424     -3090.4800779868      -425.7230629384       188.3318387085      -631.6515504861 
  135000       291.0105428141     10875.4016874320         0.8170375347       254.7135498244      -613.6010480025       254.6354440990       308.3227905631        15.3381636345      2320.2643538474     -3092.0514817295      -420.1103184169       596.5046388921      2154.9616200000 
  136000       309.1259137682     11335.2737724168         0.7838903199       340.5658370008      -581.8012391054       273.6740392797       304.4375335507        14.5833348090      2324.3492322011     -3090.5972512909      -408.2481276551       416.7883460454       461.0789944246 
  137000       304.6407588176     11200.7516679798         0.7933049180       356.4521526795      -552.5321590790       268.0495726899       344.9882926808        10.5570194134      2350.3647582754     -3089.7928177342      -436.6989844043       529.9630630182      1062.1937223321 
  138000       291.5437320330     10898.8940536012         0.8152764253       308.1886698110      -561.7168531340       271.9932625043       332.3459655455        25.4360618916      2333.8836086810     -3090.9335745222      -434.4421772342       636.9664733546      2068.4459143559 
  139000       301.6943987406     10920.9351215129         0.8136310018       317.9839634048      -582.2090260857       256.0128394694       328.2808278377         9.6846738203      2338.0262766007     -3090.7071643672      -423.5064794466       520.9145919463      1274.1245506194 
  140000       290.3566193994     11494.5156619657         0.7730305169       286.9275176541      -579.4359094649       255.2799214377       335.8737573537         6.6896808921      2331.2549315215     -3090.3811958319      -418.1530048381       225.7831604467      -364.7453953871 
  141000       294.2445419226     11165.4806019831         0.7958109194       311.3903491956      -566.5738256126       288.1480863332       314.3703225887        15.0661759589      2324.9011351548     -3091.5957278431      -417.4638178051       470.8354891558       979.1697210582 
  142000       299.3492725694     11402.1705587916         0.7792912181       314.2383556791      -578.9572677759       287.8660614190       330.5465504933         6.6031828905      2299.9982893577     -3090.0150770657      -413.9562748707       397.9450951394       503.3812132536 
  143000       294.1181981805     11473.5848080192         0.7744407291       323.1655187748      -554.4216727307       282.9894662269       334.5533008410         6.7275694416      2325.5919548018     -3089.3877206260      -414.8962434160       142.3359001059     -1080.6736120093 
  144000       297.4551457930     11264.2493814150         0.7888329779       348.6715136156      -538.8724316765       279.5481155138       338.1917252596        11.5259866599      2339.2870669613     -3091.6312420471      -415.7940840240       200.3498510720      -902.8725276234 
  145000       290.2698359283     11161.2155117437         0.7961150266       296.7680571540      -569.3364262370       278.8845098100       320.9389266130        20.2687818750      2312.4823403379     -3091.3518863589      -410.5590985140       438.5912073638       871.2840111329 
  146000       291.1961239549     11161.6137377381         0.7960866226       266.0712947358      -602.7970384029       270.2818410293       300.6550241720         7.8096517503      2320.7879403258     -3091.3838657730      -410.9476299074       697.2053270801      2648.5576319895 
  147000       299.0021658706     11285.4654848542         0.7873500119       310.1289197779      -582.0310098819       251.3326002398       324.5852817630        12.2764403229      2356.4768807944     -3091.2190322025      -435.4831807996       532.6309676011      1351.8815660700 
  148000       312.5157718002     11304.1945093962         0.7860455140       332.1785351720      -600.3031683468       275.8598333488       298.2688006071         2.7464423028      2335.7046756923     -3091.1895075433      -421.6934127546       293.8062423528      -232.7567255093 
  149000       319.4797903085     11423.6967062248         0.7778227672       376.5764184571      -576.6844598361       278.8261964348       293.7761080615        12.0880700536      2354.7047474777     -3090.8484916674      -425.2310901962      -149.6763678622     -3158.7252686415 
  150000       295.7163357296     11338.0873891391         0.7836957927       280.4091573818      -601.9465423357       268.8260101842       303.1434762262         9.4913703885      2325.0717155503     -3090.6772075799      -417.8019071049       699.3177709688      2533.3990361564 
  151000       304.7482564320     11508.3705225646         0.7720998699       418.7336805319      -490.5713816261       298.4190128063       349.0228538482        11.8868506344      2349.0616580642     -3090.7736996667      -408.1880573127       -78.2198808340     -2960.9159667438 
  152000       294.7517863660     11175.3836973169         0.7951057095       312.0640943384      -567.4135918039       265.7928843137       337.8022740663        12.3869336298      2322.3160115035     -3091.3559514567      -414.3557438604       176.5878695426      -831.2367839922 
  153000       300.2610415110     11292.8282099413         0.7868366735       385.3803325012      -510.5358187884       289.7543737594       332.1002923864        19.9685204498      2344.0239098524     -3090.5835526378      -405.7993625987       310.9257856267      -452.0772098734 
  154000       293.4813955602     11399.2945418358         0.7794878315       341.9630108318      -533.7240948354       279.8492595573       339.1252139195         0.2181379019      2370.6390524251     -3091.7887536210      -431.7670050183        87.6905523558     -1529.4858284313 
  155000       295.4417136781     11128.4409463696         0.7984596788       303.0867976800      -578.4494872702       260.5955054434       316.3952125913         8.8656624560      2360.6546747671     -3089.6051544445      -435.3553880835       663.6910764448      2221.8803115620 
  156000       287.5307485126     11239.5276570007         0.7905680430       303.4266365509      -554.5049828444       275.1782234535       317.4805605783         7.3014169868      2352.4668219917     -3090.8149211874      -416.1170846673       567.0976573261      1608.5643923589 
  157000       302.4911194639     11144.7103419292         0.7972940625       271.4974515163      -631.0727859865       237.6664919049       295.7843442897         7.3142931097      2316.6795990503     -3089.6760360942      -398.8414782469       585.9234165069      1934.5222435382 
  158000       299.2184927256     11481.0713352498         0.7739357351       317.0078268365      -575.7975769160       272.7594910490       311.3801878288        11.6008902740      2334.4326272785     -3090.6233801755      -415.3473931707       366.5808929743       296.0652775778 
  159000       292.9355101237     11322.2972638615         0.7847887382       264.7120499540      -609.3462477372       247.3192853346       308.2716634280        13.1909052136      2338.4528668388     -3090.0622928615      -426.5186756905       -35.4684768432     -1817.9087208787 
  160000       304.4679292517     11564.1768928062         0.7683738727       359.8259538103      -548.6426706693       258.6122719372       331.5633970842         1.3082322240      2348.9797121783     -3089.9540392409      -399.1522448521       379.3827367673       115.9596244760 
  161000       302.2994929586     11019.6377117958         0.8063433314       344.7450988022      -557.2533652853       272.5643788374       313.5885371476        16.2425183307      2358.4652696093     -3090.7555132401      -427.3585559701       248.3821211533      -599.6074294706 
  162000       301.9842765952     11661.3265305469         0.7619726075       351.8825644138      -549.1753599697       249.4369093171       333.9436417594        13.0584288771      2354.9348847679     -3089.7356231251      -410.8136015662       153.5598655862     -1166.1343228409 
  163000       306.3965997069     11466.4855495456         0.7749202094       379.4264301765      -534.7969435794       259.1069617330       330.5905165484        14.0386317839      2345.5776411581     -3092.0193800022      -392.0913148007        69.3506488318     -1854.2215716248 
  164000       298.0271723297     11060.1029409586         0.8033931900       290.6269962994      -598.6237565445       247.9143078706       318.2512510440        10.4595199919      2362.6382840038     -3090.7943153839      -447.0928040709       391.7904967208       627.1750739371 
  165000       307.0923132697     11277.3993920464         0.7879131593       381.7298951201      -534.5693424055       266.0427130173       331.8494004977        17.4480903288      2379.3513723102     -3090.1518753020      -439.1090432575       410.0208862964       172.0138088843 
  166000       298.5091796926     11136.7791704655         0.7978618636       315.3760338827      -575.3129281249       256.5496761203       325.0355809039        17.7045796227      2356.8553998130     -3090.6885646712      -440.7695999137       144.8385491186     -1049.9880485527 
  167000       288.6998286806     11265.7734623080         0.7887262613       286.7221352342      -574.6977748810       291.0481311195       308.2507039561        12.8450311872      2342.9740827144     -3090.7501288933      -439.0655949649       114.3106200470     -1049.3717420902 
  168000       295.4681824810     11035.6493752611         0.8051734050       278.1338046771      -603.4814576452       284.2732700774       296.7554309606         5.7904300849      2339.1831622429     -3091.2345974022      -438.2491536090      -102.7110126523     -2366.3243183299 
  169000       290.7372695882     11757.8419524079         0.7557178791       333.2518734116      -534.2473342616       274.6008296031       330.0681157419        19.1585105242      2332.3627767935     -3091.5542884731      -398.8832784513       229.0646642419      -607.5903915832 
  170000       307.1422166982     10994.9822976752         0.8081514952       295.3207832125      -621.1273557070       255.5309823365       305.3494005866         7.5656772927      2350.8237151951     -3091.8520096644      -448.5451214535       427.7079414657       825.6109343346 
  171000       299.1209937564     11461.7348170127         0.7752414033       327.5716375430      -564.9428496765       262.3632955062       325.4518933536        12.4379069047      2341.3731252131     -3090.2938355269      -416.2752351272       150.8916743042     -1056.9660906445 
  172000       290.7695094711     11118.7946953128         0.7991523926       293.9460866612      -573.6493180799       275.6046854417       302.4227231307         7.6231892777      2359.5308064720     -3090.0544997983      -428.7762226037       509.4484918697      1328.9802320091 
  173000       283.6084247031     11189.3976787640         0.7941098921       257.2828516812      -588.9453737811       264.6120644005       315.7958350367        14.9457705739      2329.3929958263     -3091.5434053649      -422.1486342536       212.9551743822      -271.6391588075 
  174000       294.5068484919     11276.9881054312         0.7879418955       300.3424481888      -578.4043945635       261.3150345808       310.8401080930         5.3768225649      2347.9735733913     -3090.8785231680      -413.0314100255       -56.9373074187     -2172.3980130653 
  175000       301.9456512522     10686.8865765367         0.8314499569       311.9608724434      -588.9818019946       261.5472237244       325.6779394449        12.9262483335      2349.4859296760     -3089.0127287103      -449.6064144630       981.2203261344      4294.0532431689 
  176000       294.5548965248     11247.0812195564         0.7900370959       336.6116223861      -542.2785856475       267.9012642234       334.6926309511         8.8186439365      2345.2295291123     -3090.7151734393      -408.2054804315       547.0650959830      1283.0405359476 
  177000       307.4183716136     11083.3095010932         0.8017110217       365.9567234712      -551.3154039608       270.2912598872       329.8457100946        10.1738158004      2352.1505901185     -3090.9722045414      -422.8045753202       153.9590935158     -1311.5524264990 
  178000       292.1341336866     10961.6422679442         0.8106095023       299.1264876275      -572.5406703753       264.0515470386       321.8791996030        12.1002074094      2374.6908851371     -3091.1764338997      -454.0860756636       620.4465989128      2009.9552785886 
  179000       289.5851381287     11770.9295036726         0.7548776314       327.0681933796      -536.9932949752       272.6484949658       326.6533374628        14.6186772607      2357.4609025608     -3090.3752455332      -417.9994616921       167.2938997909      -930.7225963507 
  180000       292.3364540109     11432.7354123186         0.7772078215       327.6558461908      -544.6149933464       269.7201761123       335.3497620766        15.0614805857      2327.9121440055     -3089.9630396557      -402.6955164708       318.3114514331       -56.0434851817 
  181000       295.5369438701     11413.6956667654         0.7785043200       367.1511066572      -514.6693252696       273.0991655713       350.8407483555        12.2344444602      2356.4454587784     -3090.3339698976      -416.9551725375       787.3052736671      2524.0996543650 
  182000       307.6950336174     10981.8180152179         0.8091202542       310.1472797343      -607.9503492559       257.2970877530       285.7268774657         4.8260026949      2351.2774723058     -3089.4329525597      -417.6448369155       747.0984637180      2728.2413600932 
  183000       301.1336564531     11414.8106596995         0.7784282761       330.4804817256      -568.0393700525       286.9529792420       315.2849913979        10.2726262848      2315.2386316110     -3091.4134638241      -404.3751347641       141.6630312363     -1134.2205920338 
  184000       301.9546690450     11209.6778984609         0.7926732119       317.6418808479      -583.3277007980       262.8157391582       296.2244736694         9.6665208260      2367.2017337078     -3089.8700237403      -429.3661444190       235.5441616971      -502.1830714738 
  185000       293.6929036555     11205.6152179197         0.7929606015       318.8379729631      -557.4802286256       281.1458239867       308.5411324801         8.2150009215      2362.1860322447     -3090.1192011770      -427.4490170816       161.1388305144      -964.9787213179 
  186000       298.4857585325     11285.2743967372         0.7873633437       317.5408016033      -573.0782765612       284.0673114366       293.4021818096        20.8767461451      2348.1989735647     -3089.5338241707      -430.0896653465        60.4703143164     -1561.9395007037 
  187000       316.6947623787     11586.3816560376         0.7669013198       372.1874911332      -572.7634462782       257.9772602597       333.9005778147         7.8465400217      2335.7401813128     -3090.7247565017      -417.5032491854       155.1861137051     -1284.2180539866 
  188000       303.7549616903     11284.2763389785         0.7874329834       335.4781078919      -570.8631704945       243.4671036702       325.6018057592        12.2510785622      2342.5997910182     -3090.9661493535      -403.8168001509       537.7581849460      1229.1461014445 
  189000       297.2399070136     10948.7894930530         0.8115610762       232.6718125260      -654.2299052632       234.9121900272       289.0646783683         1.6709608611      2359.3541982928     -3091.0710846643      -448.1608481483       288.2621393269       348.1426508828 
  190000       306.6386540609     11276.7774305128         0.7879566160       311.3971994276      -603.5484138973       257.5010197527       306.3139217933         8.3375887092      2349.2524646361     -3090.4601916636      -434.4932171250       425.5685412879       694.2185387645 
  191000       301.7407736220     11209.1688285969         0.7927092115       333.9806607486      -566.3507016891       266.0192661591       331.3776367619        11.9157493995      2349.8235060057     -3090.4636016897      -435.0232583257       -33.2250443145     -2246.2604997882 
  192000       291.8150181764     11334.9682128345         0.7839114514       277.9800045319      -592.7349795283       268.5480878695       313.9207200747         9.4998906921      2331.5301323101     -3090.4398236681      -425.7939868066        37.2202657201     -1456.4234655233 
  193000       300.0310589226     10745.5054078629         0.8269142350       273.8192917716      -621.4106395729       263.1946933089       312.6926990573         6.9925930014      2306.5639236028     -3092.5242289409      -418.3303196024       663.2013468237      2484.6956314244 
  194000       295.8217773575     11283.3404324645         0.7874982978       298.8172810738      -583.8530344092       248.1035513496       334.1961543224        12.7844283571      2326.0714306026     -3091.5988383087      -413.4097607323       409.1716655757       670.6192442644 
  195000       310.9824989912     11191.5799216769         0.7939550489       390.1228874464      -537.7838506791       273.1700645450       351.9091385044        12.3928966130      2338.9581660921     -3091.8793173051      -422.3347991283       509.5489188162       731.6977350898 
  196000       284.2982459567     11510.4716381681         0.7719589312       283.4601958375      -564.8263119763       269.4970599360       318.7670769331        12.1732397608      2339.3700727251     -3089.5822629466      -415.0514983847       279.5872355928       -23.0714043425 
  197000       294.5543783892     11068.2950416156         0.8027985656       305.4705092625      -573.4181527630       287.7601762192       312.3493430091         8.1549428753      2317.1152673972     -3092.0509247942      -406.7469574697        27.3522869731     -1722.9506092219 
  198000       305.0736966248     11247.8241908320         0.7899849102       357.5247254341      -552.7513821966       281.6649722616       303.7715850144        13.2445403833      2355.3938184606     -3091.9599963242      -414.8663019922        95.9805598421     -1594.4122687976 
  199000       289.4476528424     11180.3134531694         0.7947551221       304.7987348857      -558.8525261283       269.4700668877       327.0913894690        16.8543956664      2360.0056091903     -3091.0692234528      -441.2047638889        67.1507107968     -1457.4858216556 
  200000       290.5324157215     11692.9932924270         0.7599090465       251.9325595315      -614.9554070467       242.1788759835       300.3255896967         8.0048280168      2351.5109699577     -3091.3377951659      -425.6378755354       528.0003250593      1618.8779589134 
  201000       296.1234738516     10866.7619842394         0.8176871267       263.0059220053      -620.5645927194       246.3829458838       326.3044460699         9.1796453085      2321.4850382933     -3090.2051002846      -433.7115679902       770.2669436003      3200.7772225518 
  202000       305.1091671652     11227.4677829043         0.7914172238       309.5263861670      -600.8555581380       282.8221998920       306.5361376491         5.8702471559      2312.0530510328     -3090.8852379421      -417.2519559256       484.6536492109      1069.5375914141 
  203000       311.8459606284     11112.2096751967         0.7996259649       318.5294484421      -611.9536786244       239.2096763840       329.9263383569         9.6448273519      2300.4815258175     -3090.7333353018      -400.4827112329       423.3386596188       646.7301911905 
  204000       305.5587968226     11529.2277879204         0.7707030815       349.8351356724      -561.8884094948       243.4307550783       345.1571859581        19.1832565927      2334.5663454520     -3091.0941587550      -413.1317938209       446.7034692004       576.1104053012 
  205000       297.3008410206     11193.5747660516         0.7938135555       345.4810029546      -541.6025291679       260.8058213222       338.9430491116        14.3977244282      2357.5758091131     -3089.8673114626      -423.4576216804       396.8689148693       314.7866292754 
  206000       314.2046918329     11623.6688836493         0.7644411995       389.6521737064      -547.8689139693       276.8995817371       319.2880219711        14.2321547731      2346.3620513362     -3089.9188545763      -414.7318692105       395.5309630115        34.6791764976 
  207000       296.1214029042     11150.7134596667         0.7968648298       279.0760337140      -604.4883017366       257.1850707057       301.3350097427         8.2776819639      2343.1590373830     -3089.7691723217      -424.6759292102       319.9427138752       251.2990307840 
  208000       288.5050806821     11244.9599816638         0.7901861277       338.8465109179      -521.9923118995       278.3622858989       350.7824341027        17.1231218370      2325.1536599696     -3089.9578407527      -403.4559729552       692.8659995127      2158.7053445845 
  209000       298.1296616443     11571.3481682835         0.7678976775       320.1882542275      -569.3683052964       256.6462704813       314.5682636606         6.4593870662      2366.0987929310     -3090.1866988541      -422.9543205813       721.6564731012      2378.9829016204 
  210000       290.9518231894     11303.5949692712         0.7860872057       340.2548565995      -527.8845341480       309.5169281281       307.1262762732         9.8610774414      2361.6295125997     -3088.6261559283      -427.3921726621       337.6958173715       -15.5233148624 
Loop time of 58.7133 on 64 procs for 100000 steps with 1002 atoms

Performance: 147.156 ns/day, 0.163 hours/ns, 1703.192 timesteps/s
99.3% CPU use with 64 MPI tasks x no OpenMP threads

MPI task timing breakdown:
Section |  min time  |  avg time  |  max time  |%varavg| %total
---------------------------------------------------------------
Pair    | 12.096     | 18.182     | 24.401     |  90.6 | 30.97
Bond    | 0.46589    | 0.49716    | 0.53267    |   2.0 |  0.85
Kspace  | 16.422     | 22.761     | 28.898     |  81.0 | 38.77
Neigh   | 1.558      | 1.5674     | 1.5834     |   0.5 |  2.67
Comm    | 12.628     | 12.819     | 13.018     |   3.6 | 21.83
Output  | 0.046206   | 0.046268   | 0.046841   |   0.0 |  0.08
Modify  | 1.9677     | 2.1031     | 2.2087     |   3.6 |  3.58
Other   |            | 0.7365     |            |       |  1.25

Nlocal:    15.6562 ave 21 max 9 min
Histogram: 3 1 6 8 5 13 9 6 8 5
Nghost:    4683.06 ave 4842 max 4558 min
Histogram: 3 4 10 12 12 9 7 4 1 2
Neighs:    11875.7 ave 20685 max 5497 min
Histogram: 4 8 12 8 9 8 6 3 5 1

Total # of neighbors = 760047
Ave neighs/atom = 758.53
Ave special neighs/atom = 5
Neighbor list builds = 3820
Dangerous builds = 0
unfix equil
undump equil

# WRITE RESTART FILES, CLEANUP, AND EXIT
write_restart   md-7.end.restart
PPPM initialization ...
WARNING: Using 12-bit tables for long-range coulomb (../kspace.cpp:321)
  G vector (1/distance) = 0.186275
  grid = 8 8 8
  stencil order = 5
  estimated absolute RMS force accuracy = 0.00737937
  estimated relative force accuracy = 2.22228e-05
  using double precision FFTs
  3d grid and FFT values/proc = 343 8
write_data      md-7.end.data pair ii
PPPM initialization ...
WARNING: Using 12-bit tables for long-range coulomb (../kspace.cpp:321)
  G vector (1/distance) = 0.186275
  grid = 8 8 8
  stencil order = 5
  estimated absolute RMS force accuracy = 0.00737937
  estimated relative force accuracy = 2.22228e-05
  using double precision FFTs
  3d grid and FFT values/proc = 343 8
unfix		averages
Total wall time: 0:03:17
