
#===========================================================
# GENERAL PROCEDURES
#===========================================================
units		real	# g/mol, angstroms, fs, kcal/mol, K, atm, charge*angstrom
dimension	3	# 3 dimensional simulation
newton		on	# use Newton's 3rd law
boundary	p p p	# periodic boundary conditions
atom_style	full    # molecular + charge

#===========================================================
# FORCE FIELD DEFINITION
#===========================================================
special_bonds  lj   0.0 0.0 0.0  coul 0.0 0.0 0.0     # NO     1-4 LJ/COUL interactions
pair_style     hybrid lj/cut/coul/long 14.0 14.0 # outer_LJ outer_Coul (cutoff values, see LAMMPS Doc)
kspace_style   pppm 0.0001          # long-range electrostatics sum method
bond_style     harmonic             # parameters needed: k_bond, r0
angle_style    harmonic             # parameters needed: k_theta, theta0
dihedral_style hybrid opls            # parameters needed: V1, V2, V3, V4
pair_modify    shift yes mix arithmetic       # using Lorenz-Berthelot mixing rules

#===========================================================
# SETUP SIMULATIONS
#===========================================================

# READ IN COEFFICIENTS/COORDINATES/TOPOLOGY
read_data ${data_name}
read_data md-1.data
  orthogonal box = (-22.3237 -22.3237 -22.3237) to (22.3237 22.3237 22.3237)
  4 by 4 by 4 MPI processor grid
  reading atoms ...
  1002 atoms
  scanning bonds ...
  1 = max bonds/atom
  scanning angles ...
  6 = max angles/atom
  scanning dihedrals ...
  3 = max dihedrals/atom
  reading bonds ...
  835 bonds
  reading angles ...
  1169 angles
  reading dihedrals ...
  501 dihedrals
  4 = max # of 1-2 neighbors
  3 = max # of 1-3 neighbors
  4 = max # of 1-4 neighbors
  5 = max # of special neighbors
include ${settings_name}
include md-1.in.settings
     # Non-bonded interactions (pair-wise)
     pair_coeff           1          1          lj/cut/coul/long      0.044000             1.542680
     pair_coeff           1          2          lj/cut/coul/long      0.044000             1.542680
     pair_coeff           1          3          lj/cut/coul/long      0.067971             1.800595
     pair_coeff           1          4          lj/cut/coul/long      0.051381             1.706784
     pair_coeff           2          2          lj/cut/coul/long      0.044000             1.542680
     pair_coeff           2          3          lj/cut/coul/long      0.067971             1.800595
     pair_coeff           2          4          lj/cut/coul/long      0.051381             1.706784
     pair_coeff           3          3          lj/cut/coul/long      0.105000             2.058511
     pair_coeff           3          4          lj/cut/coul/long      0.079373             1.964699
     pair_coeff           4          4          lj/cut/coul/long      0.060000             1.870887

     # Stretching interactions
     bond_coeff           1           366.904251           1.096103
     bond_coeff           2           612.219900           0.957501
     bond_coeff           3           368.709924           1.411527

     # Bending interactions
     angle_coeff          1           40.926667            108.205025
     angle_coeff          2           61.328715            112.232133
     angle_coeff          3           49.873049            108.741688

     # Dihedral interactions
     dihedral_coeff       1          opls                  0.105414            -0.205941             0.372587            -0.070860

# SET RUN PARAMETERS
timestep	1.0		# fs
run_style	verlet 		# Velocity-Verlet integrator
neigh_modify every 1 delay 0 check no one 10000 # More relaxed rebuild criteria can be used

# Setting up fixes to scale the charges by 0.0
group charge_1 type 1
501 atoms in group charge_1
group charge_2 type 2
167 atoms in group charge_2
group charge_3 type 3
167 atoms in group charge_3
group charge_4 type 4
167 atoms in group charge_4
variable charge_1 equal 0.0
variable charge_2 equal 0.0
variable charge_3 equal 0.0
variable charge_4 equal -0.0
fix 1 charge_1 adapt 0 atom charge v_charge_1 reset yes
fix 2 charge_2 adapt 0 atom charge v_charge_2 reset yes
fix 3 charge_3 adapt 0 atom charge v_charge_3 reset yes
fix 4 charge_4 adapt 0 atom charge v_charge_4 reset yes

#===========================================================
# RUN CONSTRAINED RELAXATION
#===========================================================

# SET OUTPUTS
thermo_style    custom step temp vol density etotal pe ebond eangle edihed ecoul elong evdwl enthalpy press
thermo_modify   format float %20.10f
thermo ${thermo_freq}
thermo 1000

# DECLARE RELEVANT OUTPUT VARIABLES
variable        my_step equal   step
variable        my_temp equal   temp
variable        my_rho  equal   density
variable        my_pe   equal   pe
variable        my_ebon equal   ebond
variable        my_eang equal   eangle
variable        my_edih equal   edihed
variable        my_evdw equal   evdwl
variable        my_eel  equal   (ecoul+elong)
variable        my_ent  equal   enthalpy
variable        my_P    equal   press
variable        my_vol  equal   vol

fix  averages all ave/time ${dump4avg} $(v_avg_freq/v_dump4avg) ${avg_freq} v_my_temp v_my_rho v_my_vol v_my_pe v_my_edih v_my_evdw v_my_eel v_my_ent v_my_P file thermo.avg
fix  averages all ave/time 100 $(v_avg_freq/v_dump4avg) ${avg_freq} v_my_temp v_my_rho v_my_vol v_my_pe v_my_edih v_my_evdw v_my_eel v_my_ent v_my_P file thermo.avg
fix  averages all ave/time 100 10 ${avg_freq} v_my_temp v_my_rho v_my_vol v_my_pe v_my_edih v_my_evdw v_my_eel v_my_ent v_my_P file thermo.avg
fix  averages all ave/time 100 10 1000 v_my_temp v_my_rho v_my_vol v_my_pe v_my_edih v_my_evdw v_my_eel v_my_ent v_my_P file thermo.avg

# INITIALIZE VELOCITIES AND CREATE THE CONSTRAINED RELAXATION FIX
velocity        all create ${ANNEAL_TEMP} ${vseed} mom yes rot yes     # DRAW VELOCITIES
velocity        all create 10.0 ${vseed} mom yes rot yes     
velocity        all create 10.0 83904 mom yes rot yes     

fix relax all nve/limit 0.01
run             10000
PPPM initialization ...
WARNING: Using 12-bit tables for long-range coulomb (../kspace.cpp:321)
  G vector (1/distance) = 0.156228
  grid = 10 10 10
  stencil order = 5
  estimated absolute RMS force accuracy = 0.0197678
  estimated relative force accuracy = 5.95301e-05
  using double precision FFTs
  3d grid and FFT values/proc = 512 40
Neighbor list info ...
  update every 1 steps, delay 0 steps, check no
  max neighbors/atom: 10000, page size: 100000
  master list distance cutoff = 16
  ghost atom cutoff = 16
  binsize = 8, bins = 6 6 6
  1 neighbor lists, perpetual/occasional/extra = 1 0 0
  (1) pair lj/cut/coul/long, perpetual
      attributes: half, newton on
      pair build: half/bin/newton
      stencil: half/bin/3d/newton
      bin: standard
WARNING: System is not charge neutral, net charge = -15.9979 (../kspace.cpp:302)
WARNING: Using kspace solver on system with no charge (../kspace.cpp:289)
Per MPI rank memory allocation (min/avg/max) = 8.527 | 8.816 | 9.271 Mbytes
Step Temp Volume Density TotEng PotEng E_bond E_angle E_dihed E_coul E_long E_vdwl Enthalpy Press 
       0        10.0000000000     88999.8354552273         0.0998385147       251.0773492489       221.2394406484       175.0902248725        91.9155565822       -43.5482769035         0.0000000000         0.0000000000        -2.2180639028     -3338.2373078670     -2765.3266516264 
    1000        15.3815897668     88999.8354552273         0.0998385147        24.4438412939       -21.4516056652         8.3796752232        15.9058116332       -42.8901006555         0.0000000000         0.0000000000        -2.8469918661       -32.4972353070       -43.8692875211 
    2000        10.5989258514     88999.8354552273         0.0998385147        18.8834202256       -12.7415578560        17.3156610561        23.6001279598       -42.4082811257         0.0000000000         0.0000000000       -11.2490657463       910.1241809654       686.6413407929 
    3000        14.1731344878     88999.8354552273         0.0998385147        -3.7689402456       -46.0586093887        14.6660517646        15.4084261204       -41.3075136859         0.0000000000         0.0000000000       -34.8255735877      1536.2583720978      1186.4879448819 
    4000        16.1087462417     88999.8354552273         0.0998385147       -34.1070315920       -82.1721613949         5.0083665552        14.8819478998       -40.7734350064         0.0000000000         0.0000000000       -61.2890408435      -228.1371157976      -149.4871902655 
    5000        13.3121954728     88999.8354552273         0.0998385147       -60.3533031693      -100.0741103484        11.5333137824        13.1601993424       -40.6787502655         0.0000000000         0.0000000000       -84.0888732077     -1199.3838966866      -877.5468183116 
    6000        14.3229598186     88999.8354552273         0.0998385147       -84.1443128906      -126.8810294862         6.6758213090        12.4498046646       -39.2880386898         0.0000000000         0.0000000000      -106.7186167701      -359.3625276750      -212.0372096237 
    7000        13.5628416734     88999.8354552273         0.0998385147      -102.3758620265      -142.8445450480         6.2574100117        12.6564083964       -39.8886695841         0.0000000000         0.0000000000      -121.8696938720      -175.0943935866       -56.0247603234 
    8000        13.8819296995     88999.8354552273         0.0998385147      -120.0003100257      -161.4210849830         5.2169366079        12.6661493471       -39.7222082963         0.0000000000         0.0000000000      -139.5819626418         7.6032519492        98.3100019031 
    9000        13.1216388482     88999.8354552273         0.0998385147      -136.3694166243      -175.5216426884         4.2643208087        12.4976634037       -40.5817402569         0.0000000000         0.0000000000      -151.7018866439        66.1755859536       156.0473648282 
   10000        12.8826810576     88999.8354552273         0.0998385147      -152.5030784929      -190.9423044854         3.0585485869        13.2398239537       -39.5105880552         0.0000000000         0.0000000000      -167.7300889708      -136.1973817198        12.5624477560 
Loop time of 3.87639 on 64 procs for 10000 steps with 1002 atoms

Performance: 222.888 ns/day, 0.108 hours/ns, 2579.721 timesteps/s
98.4% CPU use with 64 MPI tasks x no OpenMP threads

MPI task timing breakdown:
Section |  min time  |  avg time  |  max time  |%varavg| %total
---------------------------------------------------------------
Pair    | 0.0023823  | 0.27762    | 1.0215     |  52.7 |  7.16
Bond    | 0.001209   | 0.041011   | 0.12654    |  16.8 |  1.06
Kspace  | 0.00040579 | 0.0004805  | 0.00071025 |   0.0 |  0.01
Neigh   | 1.5545     | 1.5799     | 1.607      |   1.0 | 40.76
Comm    | 1.1084     | 1.9544     | 2.2756     |  22.2 | 50.42
Output  | 0.0011654  | 0.0015788  | 0.00159    |   0.1 |  0.04
Modify  | 0.0090535  | 0.012321   | 0.032983   |   3.6 |  0.32
Other   |            | 0.009059   |            |       |  0.23

Nlocal:    15.6562 ave 81 max 0 min
Histogram: 34 8 5 4 5 3 2 2 0 1
Nghost:    879.469 ave 975 max 804 min
Histogram: 2 5 10 9 15 7 9 4 1 2
Neighs:    2019.73 ave 12517 max 0 min
Histogram: 36 10 5 2 6 2 0 2 0 1

Total # of neighbors = 129263
Ave neighs/atom = 129.005
Ave special neighs/atom = 5
Neighbor list builds = 10000
Dangerous builds not checked
unfix relax

#===========================================================
# RESHAPE BOX FOR CONSTANT DENSITY NVT
#===========================================================
fix dynamics all nvt temp ${ANNEAL_TEMP} ${ANNEAL_TEMP} 100.0
fix dynamics all nvt temp 10.0 ${ANNEAL_TEMP} 100.0
fix dynamics all nvt temp 10.0 10.0 100.0
velocity all create ${ANNEAL_TEMP} ${vseed} mom yes rot yes
velocity all create 10.0 ${vseed} mom yes rot yes
velocity all create 10.0 83904 mom yes rot yes
fix mom all momentum 100 linear 1 1 1 angular

fix reshape  all deform 1 x final -11.611702913823104 11.611702913823104 y final -11.611702913823104 11.611702913823104 z final -11.611702913823104 11.611702913823104 units box
run             10000
PPPM initialization ...
WARNING: Using 12-bit tables for long-range coulomb (../kspace.cpp:321)
  G vector (1/distance) = 0.156228
  grid = 10 10 10
  stencil order = 5
  estimated absolute RMS force accuracy = 0.0197678
  estimated relative force accuracy = 5.95301e-05
  using double precision FFTs
  3d grid and FFT values/proc = 512 40
Per MPI rank memory allocation (min/avg/max) = 8.527 | 8.915 | 9.271 Mbytes
Step Temp Volume Density TotEng PotEng E_bond E_angle E_dihed E_coul E_long E_vdwl Enthalpy Press 
   10000        10.0000000000     88999.8354552273         0.0998385147      -161.1043958849      -190.9423044854         3.0585485869        13.2398239537       -39.5105880552         0.0000000000         0.0000000000      -167.7300889708      -150.5329107065         8.1446216071 
   11000         9.6385006699     76792.8394411798         0.1157088532      -180.4866336428      -209.2459038463         4.6158505166        14.3412456245       -39.9760501313         0.0000000000         0.0000000000      -188.2269498561      -134.7026091166        40.8806083604 
   12000         9.5705266493     65756.4024739899         0.1351292201      -193.3219365925      -221.8783865345         3.8024452851        13.7217231298       -39.8397849260         0.0000000000         0.0000000000      -199.5627700233      -221.4044265854       -29.2834120423 
   13000        10.1071239843     55831.5242834630         0.1591504351      -201.7109812557      -231.8685254214         3.2627828402        13.0844089969       -40.1926488856         0.0000000000         0.0000000000      -208.0230683729      -111.8275270446       110.3886391976 
   14000         9.2993297432     46959.2045994046         0.1892198017      -205.8797187019      -233.6269737942         2.8298779536        13.1383128449       -38.5056411718         0.0000000000         0.0000000000      -211.0895234210      -248.2139430353       -61.8151582327 
   15000         9.3742647769     39080.4431516202         0.2273672115      -213.4845850574      -241.4554306185         2.9761727188        12.8245758967       -38.9696452030         0.0000000000         0.0000000000      -218.2865340309      -167.2600373013        81.1030714628 
   16000        10.4210195101     32136.2396699152         0.2764981676      -222.9755866300      -254.0697293967         2.6538889102        12.5953061710       -39.4526188330         0.0000000000         0.0000000000      -229.8663056449      -244.3172966756       -45.5363554119 
   17000        10.4911713881     26067.5938840953         0.3408681071      -237.3116530329      -268.6151143320         2.0569857141        12.1549609864       -39.3536501092         0.0000000000         0.0000000000      -243.4734109233      -219.7996026186        46.0638425489 
   18000        10.0860323982     20815.5055239657         0.4268746379      -254.6956753562      -284.7902866400         1.6021053666        11.9003640800       -39.6085474079         0.0000000000         0.0000000000      -258.6842086787      -286.6134288819      -105.1403612128 
   19000        10.4593698419     16320.9743193321         0.5444289789      -278.0164562046      -309.2250283406         1.1536043608        11.1538985810       -39.4961525363         0.0000000000         0.0000000000      -282.0363787461      -272.0066379074        25.2487202675 
   20000        10.5089654318     12525.0000000000         0.7094300506      -306.8972212222      -338.2537762263         0.8956390713        11.0076048283       -39.6592954104         0.0000000000         0.0000000000      -310.4977247155      -323.0419742677       -88.3848404706 
Loop time of 8.75371 on 64 procs for 10000 steps with 1002 atoms

Performance: 98.701 ns/day, 0.243 hours/ns, 1142.373 timesteps/s
98.3% CPU use with 64 MPI tasks x no OpenMP threads

MPI task timing breakdown:
Section |  min time  |  avg time  |  max time  |%varavg| %total
---------------------------------------------------------------
Pair    | 0.0054929  | 0.71066    | 3.1293     | 100.3 |  8.12
Bond    | 0.0021708  | 0.042558   | 0.18421    |  23.1 |  0.49
Kspace  | 0.00041604 | 0.00060897 | 0.0011897  |   0.0 |  0.01
Neigh   | 3.2625     | 3.4552     | 3.6543     |   6.5 | 39.47
Comm    | 1.7119     | 4.2163     | 5.2629     |  42.8 | 48.17
Output  | 0.00060296 | 0.00064343 | 0.0007236  |   0.0 |  0.01
Modify  | 0.088768   | 0.28918    | 1.617      |  58.7 |  3.30
Other   |            | 0.03855    |            |       |  0.44

Nlocal:    15.6562 ave 54 max 0 min
Histogram: 25 6 10 4 3 2 3 5 4 2
Nghost:    4311.61 ave 5885 max 2893 min
Histogram: 4 5 10 7 8 11 5 7 4 3
Neighs:    10753.7 ave 41320 max 0 min
Histogram: 27 6 5 12 2 1 3 4 1 3

Total # of neighbors = 688234
Ave neighs/atom = 686.86
Ave special neighs/atom = 5
Neighbor list builds = 10000
Dangerous builds not checked
unfix dynamics
unfix reshape
unfix mom

#===========================================================
# RUN RAMPED ANNEAL
#===========================================================

# REINITIALIZE THE VELOCITIES AND CREATE THE ANNEALING FIX
velocity        all create ${ANNEAL_TEMP} ${vseed} mom yes rot yes     # DRAW VELOCITIES
velocity        all create 10.0 ${vseed} mom yes rot yes     
velocity        all create 10.0 83904 mom yes rot yes     

fix mom all momentum 1000 linear 1 1 1 angular # Zero out system linear and angular momentum every ps
fix anneal all nvt temp ${ANNEAL_TEMP} ${FINAL_TEMP} 100.0 # NVT, nose-hoover 100 fs T relaxation
fix anneal all nvt temp 10.0 ${FINAL_TEMP} 100.0 
fix anneal all nvt temp 10.0 298.0 100.0 

# CREATE COORDINATE DUMPS FOR ANNEAL
dump anneal all custom ${coords_freq} anneal.lammpstrj id type x y z mol
dump anneal all custom 1000 anneal.lammpstrj id type x y z mol
dump_modify anneal sort id format float %20.10g

# RUN RAMPED ANNEAL
run ${nSteps_ramp}
run 50000
PPPM initialization ...
WARNING: Using 12-bit tables for long-range coulomb (../kspace.cpp:321)
  G vector (1/distance) = 0.184168
  grid = 8 8 8
  stencil order = 5
  estimated absolute RMS force accuracy = 0.00816917
  estimated relative force accuracy = 2.46012e-05
  using double precision FFTs
  3d grid and FFT values/proc = 343 8
Per MPI rank memory allocation (min/avg/max) = 9.939 | 10.35 | 10.72 Mbytes
Step Temp Volume Density TotEng PotEng E_bond E_angle E_dihed E_coul E_long E_vdwl Enthalpy Press 
   20000        10.0000000000     12525.0000000000         0.7094300506      -308.4223335724      -338.2602421729         0.9202397295        11.0076048283       -39.6592954104         0.0000000000         0.0000000000      -310.5287913203      -298.2112985041        55.9005580954 
   21000        16.0336892032     12525.0000000000         0.7094300506      -283.1878105235      -331.0289858211         6.1538515857        18.4958294568       -38.8886664379         0.0000000000         0.0000000000      -316.7900004256      -289.7242226064       -35.7837458133 
   22000        19.8656729164     12525.0000000000         0.7094300506      -258.1365740633      -317.4115873399         8.8386667962        21.2433697573       -37.5257685066         0.0000000000         0.0000000000      -309.9678553868      -238.0480466887       109.9751282843 
   23000        27.1720645078     12525.0000000000         0.7094300506      -227.8851832362      -308.9609409633        10.3196484360        24.1432813592       -35.1655619368         0.0000000000         0.0000000000      -308.2583088217      -281.3667942837      -292.7863713516 
   24000        32.4645974344     12525.0000000000         0.7094300506      -188.5947383436      -285.4623074435        14.5100692382        28.6274352718       -33.6084102166         0.0000000000         0.0000000000      -294.9914017369      -164.6180783036       131.2608044659 
   25000        39.3778917347     12525.0000000000         0.7094300506      -148.4495387807      -265.9449322267        16.5603703126        33.1167229726       -32.3429443762         0.0000000000         0.0000000000      -283.2790811356       -76.5887608550       393.4035643141 
   26000        44.2110692995     12525.0000000000         0.7094300506       -98.9646206462      -230.8812051351        21.1541746285        39.1219504503       -27.8383621393         0.0000000000         0.0000000000      -263.3189680745      -192.9481607270      -514.5151600346 
   27000        49.9568779460     12525.0000000000         0.7094300506       -55.7929368949      -204.8538127068        25.3355805493        43.8053989924       -26.2657842175         0.0000000000         0.0000000000      -247.7290080311        28.3525118317       460.6562913092 
   28000        53.0617007116     12525.0000000000         0.7094300506       -24.1101171728      -182.4351347748        30.7818280553        51.6798453927       -27.5454124549         0.0000000000         0.0000000000      -237.3513957679      -105.2256893424      -444.0691589214 
   29000        62.2232152797     12525.0000000000         0.7094300506        28.9260853991      -156.7349756353        33.9118111946        56.6574222544       -25.8722660949         0.0000000000         0.0000000000      -221.4319429894        18.2673865279       -58.3513043962 
   30000        66.4399401170     12525.0000000000         0.7094300506        75.8136086930      -122.4292773703        40.9849707768        69.7798144794       -24.6567117828         0.0000000000         0.0000000000      -208.5373508437        58.0169927770       -97.4280036504 
   31000        74.2931542154     12525.0000000000         0.7094300506       111.5897732307      -110.0854612816        42.8643842006        72.1223270954       -21.5862534505         0.0000000000         0.0000000000      -203.4859191271       130.8596128648       105.4932024766 
   32000        79.1850886773     12525.0000000000         0.7094300506       153.4703173715       -82.8014264762        53.2575116593        78.6943551987       -25.0175509878         0.0000000000         0.0000000000      -189.7357423464       117.3366834955      -197.8144513424 
   33000        84.7309741680     12525.0000000000         0.7094300506       202.5586045427       -50.2609017428        57.7385646827        87.0901905689       -21.1182580296         0.0000000000         0.0000000000      -173.9713989649       213.1365628710        57.9092883437 
   34000        90.2637525381     12525.0000000000         0.7094300506       241.4245781216       -27.9035816952        60.6425447749        90.2460769796       -21.4524254963         0.0000000000         0.0000000000      -157.3397779534       186.2501715444      -302.0536213624 
   35000        96.0289284264     12525.0000000000         0.7094300506       279.6440719457        -6.8861669934        66.9110186279        93.8060428447       -17.0416409143         0.0000000000         0.0000000000      -150.5615875518       341.9946078711       341.3395147951 
   36000        99.6790551312     12525.0000000000         0.7094300506       323.0310769211        25.6096232821        72.1286661379       113.9067414707       -16.0297233310         0.0000000000         0.0000000000      -144.3960609955       227.8736407917      -520.9416823036 
   37000       106.5126360655     12525.0000000000         0.7094300506       348.3860401879        30.5746102157        81.2002857445       102.4472141768       -15.1542726632         0.0000000000         0.0000000000      -137.9186170423       396.9153383719       265.6748149729 
   38000       115.6919797166     12525.0000000000         0.7094300506       399.3582038506        54.1575321912        83.4053084553       117.6726370340       -16.6084189818         0.0000000000         0.0000000000      -130.3119943163       412.4359480683        71.5944265691 
   39000       122.0267922132     12525.0000000000         0.7094300506       449.1076924198        85.0052651327        86.3290104549       133.6094759293       -13.3097765593         0.0000000000         0.0000000000      -121.6234446922       468.0417920332       103.6551856242 
   40000       120.5075034336     12525.0000000000         0.7094300506       448.1112063959        88.5420190832        88.7499004551       132.5272607665       -11.0877666649         0.0000000000         0.0000000000      -121.6473754736       720.7413605788      1492.5203635549 
   41000       131.4584222551     12525.0000000000         0.7094300506       495.7413399251       103.4969011237        89.3481246808       134.9352299988        -8.7201879141         0.0000000000         0.0000000000      -112.0662656418       410.6627980351      -465.7645323680 
   42000       129.3987333903     12525.0000000000         0.7094300506       494.1441544136       108.0453964216        96.0606741674       136.5631570303       -11.3803443828         0.0000000000         0.0000000000      -113.1980903933       411.0694357811      -454.7945535492 
   43000       143.5842907226     12525.0000000000         0.7094300506       560.7584039348       132.3329096299       103.9617908660       142.8488701483       -11.8257666569         0.0000000000         0.0000000000      -102.6519847275       788.2298243352      1245.2977848028 
   44000       151.3962600412     12525.0000000000         0.7094300506       605.9182225611       154.1834456044       112.2511272925       158.2311752014        -7.5681103591         0.0000000000         0.0000000000      -108.7307465304       610.8071989107        26.7648191032 
   45000       150.1854527160     12525.0000000000         0.7094300506       617.2287398135       169.1067586871       121.3524826130       160.2343371021        -8.3084986015         0.0000000000         0.0000000000      -104.1715624265       721.4800153118       570.7261255606 
   46000       166.0400840938     12525.0000000000         0.7094300506       663.8835542067       168.4546688857       117.4548958354       158.6069415903        -5.9909105396         0.0000000000         0.0000000000      -101.6162580004       790.6004690142       693.7148105424 
   47000       164.6927981462     12525.0000000000         0.7094300506       698.6369978890       207.2281320645       123.0996969734       185.8333094513        -6.8234665492         0.0000000000         0.0000000000       -94.8814078111       924.5047336762      1236.5183746562 
   48000       173.6570183756     12525.0000000000         0.7094300506       743.9932633807       225.8370391681       140.5281867453       176.7416224627         2.1556012962         0.0000000000         0.0000000000       -93.5883713362       704.7722042873      -214.7166352617 
   49000       173.7973148627     12525.0000000000         0.7094300506       766.5517118447       247.9768722560       141.6151835313       191.5309912703        -0.6534590881         0.0000000000         0.0000000000       -84.5158434576       572.1479313960     -1064.2681912477 
   50000       177.3444697735     12525.0000000000         0.7094300506       787.7616359593       258.6028279687       148.2279790158       204.2907490166        -2.8153902536         0.0000000000         0.0000000000       -91.1005098100      1004.9399198649      1188.9477604649 
   51000       196.9042516467     12525.0000000000         0.7094300506       851.6354889964       264.1143826281       155.2140832379       197.9036133951        -0.2722833290         0.0000000000         0.0000000000       -88.7310306760       873.2969238438       118.5860482329 
   52000       195.4990801181     12525.0000000000         0.7094300506       838.9479175554       255.6195491510       142.8509951338       196.4270561924         3.2205092056         0.0000000000         0.0000000000       -86.8790113808       751.3312641911      -479.6594849340 
   53000       199.1497038052     12525.0000000000         0.7094300506       877.1652128285       282.9441468327       149.1679280562       216.5902090695         0.1258466836         0.0000000000         0.0000000000       -82.9398369765       805.0948297390      -394.5510528453 
   54000       214.5369122048     12525.0000000000         0.7094300506       928.4030010909       288.2697233109       151.4703666847       230.5916216088        -0.2608073902         0.0000000000         0.0000000000       -93.5314575925       995.8018925617       368.9768591543 
   55000       209.3033190003     12525.0000000000         0.7094300506       937.3686171707       312.8512869596       168.9754515067       224.8895916605         6.8426877769         0.0000000000         0.0000000000       -87.8564439845      1007.5383769866       384.1460448311 
   56000       208.2937711132     12525.0000000000         0.7094300506       911.6120949531       290.1070445002       157.7788179557       227.1152908171        -4.5740738617         0.0000000000         0.0000000000       -90.2129904109      1340.3259322240      2347.0042563064 
   57000       217.0705741380     12525.0000000000         0.7094300506       979.5742095687       331.8810144699       174.6965142258       240.6239522197         6.9482195464         0.0000000000         0.0000000000       -90.3876715220      1118.5455756150       760.8020998145 
   58000       231.4291704645     12525.0000000000         0.7094300506      1007.2390927615       316.7028491807       168.8368689187       228.9236094865         6.1695838632         0.0000000000         0.0000000000       -87.2272130876      1051.6534597889       243.1475249736 
   59000       243.6394521987     12525.0000000000         0.7094300506      1073.1487864977       346.1796158797       187.2234083572       240.9044592869         0.1543363381         0.0000000000         0.0000000000       -82.1025881025       733.4966639988     -1859.4337477951 
   60000       240.0694233790     12525.0000000000         0.7094300506      1065.9059343133       349.5889830577       184.6401781943       248.5313034022         2.2602501023         0.0000000000         0.0000000000       -85.8427486412      1289.3160820560      1223.0642495514 
   61000       241.9147463161     12525.0000000000         0.7094300506      1115.1771866236       393.3541776542       204.4768439983       255.1534389082        14.9781012065         0.0000000000         0.0000000000       -81.2542064588      1055.1783828464      -328.4649003510 
   62000       256.3690744124     12525.0000000000         0.7094300506      1155.1782957942       390.2265947631       196.4618166435       269.6297806158         9.3927960442         0.0000000000         0.0000000000       -85.2577985404      1322.8929658849       918.1580120056 
   63000       253.5947447763     12525.0000000000         0.7094300506      1120.6349735446       363.9612919242       188.8080410087       251.3369238918         6.4408531987         0.0000000000         0.0000000000       -82.6245261750      1548.2501510705      2340.9896169973 
   64000       258.0124319063     12525.0000000000         0.7094300506      1147.4364438968       377.5813077955       189.1167368430       256.9380732763         9.4807442632         0.0000000000         0.0000000000       -77.9542465870      1063.8136861813      -457.7948067449 
   65000       252.3714777217     12525.0000000000         0.7094300506      1175.4194719544       422.3957633912       203.8686762440       277.3716548421        10.9930188701         0.0000000000         0.0000000000       -69.8375865650      1577.4616078495      2200.9893829575 
   66000       274.4919088390     12525.0000000000         0.7094300506      1253.9162010688       434.8897523173       225.3433627237       285.4110226335        11.5112660441         0.0000000000         0.0000000000       -87.3758990840      1136.0734249218      -645.1331241196 
   67000       288.4626245583     12525.0000000000         0.7094300506      1311.9078276771       451.1956850540       216.6490602884       297.2421987348        12.8564864409         0.0000000000         0.0000000000       -75.5520604101      1495.3196769306      1004.0925984458 
   68000       291.6856267039     12525.0000000000         0.7094300506      1356.7953651190       486.4664581519       255.9858893923       286.0674274979        23.8760842184         0.0000000000         0.0000000000       -79.4629429567       919.3074208473     -2395.0383169916 
   69000       296.2031199959     12525.0000000000         0.7094300506      1353.5082401672       469.7000780050       240.6901086923       296.4567095161        10.5470390377         0.0000000000         0.0000000000       -77.9937792411      1547.0169351831      1059.3680244283 
   70000       289.2094360756     12525.0000000000         0.7094300506      1344.4610275691       481.5205555665       223.9275615633       316.4392633687        16.1954156221         0.0000000000         0.0000000000       -75.0416849876      1695.4646890743      1921.5780222440 
Loop time of 63.9673 on 64 procs for 50000 steps with 1002 atoms

Performance: 67.534 ns/day, 0.355 hours/ns, 781.649 timesteps/s
98.7% CPU use with 64 MPI tasks x no OpenMP threads

MPI task timing breakdown:
Section |  min time  |  avg time  |  max time  |%varavg| %total
---------------------------------------------------------------
Pair    | 3.1811     | 8.6985     | 17.574     | 121.9 | 13.60
Bond    | 0.12542    | 0.245      | 0.41397    |  15.2 |  0.38
Kspace  | 0.0024567  | 0.0030954  | 0.0052507  |   0.8 |  0.00
Neigh   | 21.68      | 23.899     | 24.962     |  17.4 | 37.36
Comm    | 20.11      | 30.08      | 36.551     |  75.6 | 47.02
Output  | 0.030525   | 0.030568   | 0.030913   |   0.0 |  0.05
Modify  | 0.43287    | 0.58446    | 1.2368     |  21.8 |  0.91
Other   |            | 0.4268     |            |       |  0.67

Nlocal:    15.6562 ave 31 max 5 min
Histogram: 4 4 4 21 10 12 5 2 1 1
Nghost:    4266.02 ave 4442 max 4100 min
Histogram: 3 4 12 8 6 8 12 5 3 3
Neighs:    10743.6 ave 18944 max 3481 min
Histogram: 3 5 8 11 10 10 6 5 3 3

Total # of neighbors = 687589
Ave neighs/atom = 686.217
Ave special neighs/atom = 5
Neighbor list builds = 50000
Dangerous builds not checked
unfix anneal

# RUN EQUILIBRATION PHASE AT FINAL TEMP
fix anneal all nvt temp ${FINAL_TEMP} ${FINAL_TEMP} 100.0 # NVT, nose-hoover 100 fs T relaxation
fix anneal all nvt temp 298.0 ${FINAL_TEMP} 100.0 
fix anneal all nvt temp 298.0 298.0 100.0 
run ${nSteps_ramp}
run 50000
PPPM initialization ...
WARNING: Using 12-bit tables for long-range coulomb (../kspace.cpp:321)
  G vector (1/distance) = 0.184168
  grid = 8 8 8
  stencil order = 5
  estimated absolute RMS force accuracy = 0.00816917
  estimated relative force accuracy = 2.46012e-05
  using double precision FFTs
  3d grid and FFT values/proc = 343 8
Per MPI rank memory allocation (min/avg/max) = 10.66 | 10.7 | 10.77 Mbytes
Step Temp Volume Density TotEng PotEng E_bond E_angle E_dihed E_coul E_long E_vdwl Enthalpy Press 
   70000       289.2094360756     12525.0000000000         0.7094300506      1344.4610275691       481.5205555665       223.9275615633       316.4392633687        16.1954156221         0.0000000000         0.0000000000       -75.0416849876      1695.4646890743      1921.5780222440 
   71000       299.5849688010     12525.0000000000         0.7094300506      1359.8728479611       465.9739562444       235.8836014125       288.8300690739        21.3868647061         0.0000000000         0.0000000000       -80.1265789481      1481.2796287028       664.6443533502 
   72000       304.7577199051     12525.0000000000         0.7094300506      1388.9968358361       479.6635366536       235.8112318198       314.1194280546         7.8049214198         0.0000000000         0.0000000000       -78.0720446405      1988.4631752488      3281.7929532443 
   73000       303.5742430941     12525.0000000000         0.7094300506      1391.5621290521       485.7600771615       231.5009543699       320.3040987961        13.9850005389         0.0000000000         0.0000000000       -80.0299765434      1998.1850489679      3320.9718260516 
   74000       298.6998312352     12525.0000000000         0.7094300506      1377.7335984016       486.4757720636       246.1514328097       309.9713867266         7.0034625748         0.0000000000         0.0000000000       -76.6505100475      1696.6544477587      1745.9398922847 
   75000       288.1768300828     12525.0000000000         0.7094300506      1357.1908947982       497.3315031189       231.8483524606       328.3630397294        14.8401374050         0.0000000000         0.0000000000       -77.7200264761      1474.4685362392       642.0392805232 
   76000       280.9792672350     12525.0000000000         0.7094300506      1312.5994695516       474.2161001122       237.9132932540       300.9974693113        15.5900109618         0.0000000000         0.0000000000       -80.2846734149      1335.3686554923       124.6504583470 
   77000       302.5446644214     12525.0000000000         0.7094300506      1401.1177727798       498.3877683222       247.1234892346       325.5048531718         7.3176606794         0.0000000000         0.0000000000       -81.5582347636      1915.7492310279      2817.3623474022 
   78000       299.7736170593     12525.0000000000         0.7094300506      1381.5877947867       487.1260161210       237.6974280508       319.0717767507        14.1136206655         0.0000000000         0.0000000000       -83.7568093460      1516.1935879549       736.9026656576 
   79000       297.8674011246     12525.0000000000         0.7094300506      1400.4223413665       511.6483123842       245.6529917351       328.5209019195        18.2214297644         0.0000000000         0.0000000000       -80.7470110348      1392.7808604570       -41.8334717936 
   80000       300.6727879962     12525.0000000000         0.7094300506      1355.5483212383       458.4036045495       235.6007312085       294.0095765360        10.3752528303         0.0000000000         0.0000000000       -81.5819560252      1593.7286067961      1303.9237257439 
   81000       288.6125954405     12525.0000000000         0.7094300506      1333.1876185898       472.0279942193       232.6213741592       300.9125389873        21.7893151325         0.0000000000         0.0000000000       -83.2952340597       910.2585861771     -2315.3352023969 
   82000       289.0442746968     12525.0000000000         0.7094300506      1350.6648150949       488.2171501047       248.4509752495       295.1731940356        25.2699543437         0.0000000000         0.0000000000       -80.6769735241      1784.6234677114      2375.7171245865 
   83000       297.5179190159     12525.0000000000         0.7094300506      1355.1399027393       467.4086552787       233.1494869897       296.5177192459        14.0746660669         0.0000000000         0.0000000000       -76.3332170238      1327.6519812558      -150.4832900414 
   84000       310.6781870470     12525.0000000000         0.7094300506      1394.4345130874       467.4357781596       244.4785651502       295.3731890922         8.0145416109         0.0000000000         0.0000000000       -80.4305176937      1480.6807104454       472.1568904281 
   85000       308.1001868155     12525.0000000000         0.7094300506      1412.6893880010       493.3828666011       238.2421947012       325.4435730558         7.4578005244         0.0000000000         0.0000000000       -77.7607016803      1696.2758029147      1552.5006775381 
   86000       303.3957005299     12525.0000000000         0.7094300506      1401.2743781726       496.0050599529       256.4724861051       304.2552460483        17.3714555334         0.0000000000         0.0000000000       -82.0941277339      1239.3355894324      -886.5378100546 
   87000       302.4079972458     12525.0000000000         0.7094300506      1386.3352940882       484.0130759002       247.0551708700       310.0557816141         7.9088030185         0.0000000000         0.0000000000       -81.0066796024      1450.5022134739       351.2833499173 
   88000       288.8992193032     12525.0000000000         0.7094300506      1372.5372729742       510.5224229418       243.7373204303       332.4698762112        14.0464745412         0.0000000000         0.0000000000       -79.7312482410      1366.4602499410       -33.2688093656 
   89000       303.6873610245     12525.0000000000         0.7094300506      1384.0364223385       477.8968502008       245.0217488333       301.4350030181        14.2964686605         0.0000000000         0.0000000000       -82.8563703110      1415.5865940098       172.7221768045 
   90000       290.4098956703     12525.0000000000         0.7094300506      1371.4497718043       504.9273794352       244.6917916130       327.3885555296        13.3429546106         0.0000000000         0.0000000000       -80.4959223180      1367.0665628861       -23.9959830845 
   91000       282.5746248214     12525.0000000000         0.7094300506      1336.3913010337       493.2477182096       244.9562227632       324.2011902429        10.0972137169         0.0000000000         0.0000000000       -86.0069085134      1348.1306267686        64.2672222605 
   92000       302.3380254313     12525.0000000000         0.7094300506      1384.9947468608       482.8813099332       236.6500569097       333.3323150771        -3.4210783702         0.0000000000         0.0000000000       -83.6799836834      1851.2444653328      2552.4953444969 
   93000       298.3457962200     12525.0000000000         0.7094300506      1386.8375256289       496.6360657335       250.9267868689       307.9320404206        13.8758883086         0.0000000000         0.0000000000       -76.0986498647      1660.6179059734      1498.8173044568 
   94000       285.6175866804     12525.0000000000         0.7094300506      1357.8187308191       505.5955862125       253.0970390307       310.6838530138        17.5318848742         0.0000000000         0.0000000000       -75.7171907061      1176.7948896532      -991.0193904958 
   95000       295.3245705311     12525.0000000000         0.7094300506      1389.9724559365       508.7857016376       259.0291978576       322.2730979461        10.0933256440         0.0000000000         0.0000000000       -82.6099198101      2089.0358205534      3827.0392731611 
   96000       297.0727390721     12525.0000000000         0.7094300506      1394.9524169186       508.5494933052       240.0060476121       335.4501860978        13.3710653572         0.0000000000         0.0000000000       -80.2778057618      1685.4660243324      1590.4237601834 
   97000       306.0351093398     12525.0000000000         0.7094300506      1427.6961562152       514.5513941128       259.8950312526       325.3235324925        10.0959307312         0.0000000000         0.0000000000       -80.7631003635      1620.8663395849      1057.5148342453 
   98000       292.0979445006     12525.0000000000         0.7094300506      1382.3125660836       510.7533890433       260.6061107680       318.5091576979        18.6840137921         0.0000000000         0.0000000000       -87.0458932148      1571.2297952606      1034.2319338012 
   99000       300.6928787965     12525.0000000000         0.7094300506      1361.4246464671       464.2199830321       235.0727691785       296.2522223183        15.3878715941         0.0000000000         0.0000000000       -82.4928800588      1190.4870427649      -935.8020399009 
  100000       293.8934422193     12525.0000000000         0.7094300506      1329.1459401581       452.2293734356       245.0226297128       282.4662967966         4.6959259878         0.0000000000         0.0000000000       -79.9554790617      1112.6246101942     -1185.3512502449 
  101000       289.7003283821     12525.0000000000         0.7094300506      1381.4362347451       517.0310427651       270.2931029837       317.5933529403        14.2712134183         0.0000000000         0.0000000000       -85.1266265772      1509.9881536712       703.7605849079 
  102000       292.9807084461     12525.0000000000         0.7094300506      1398.7975608506       524.6044008182       269.5233121619       321.5675342363        13.2494654749         0.0000000000         0.0000000000       -79.7359110549      1407.2702791083        46.3841007321 
  103000       299.5590205075     12525.0000000000         0.7094300506      1421.4592471275       527.6377796917       257.8772255901       335.8656192157        11.2367920572         0.0000000000         0.0000000000       -77.3418571714      1986.1148428057      3091.2206959310 
  104000       301.7034206211     12525.0000000000         0.7094300506      1415.1743059551       514.9543970599       262.3838256051       318.7693707885        10.1695140179         0.0000000000         0.0000000000       -76.3683133517      1348.9219573510      -362.7000825395 
  105000       314.4087066731     12525.0000000000         0.7094300506      1439.0384081395       500.9085828481       260.9007523106       314.7140422166         6.8981642185         0.0000000000         0.0000000000       -81.6043758976      1441.8274774972        15.2688275595 
  106000       287.4319362704     12525.0000000000         0.7094300506      1355.5988141386       497.9620298085       234.9861603728       334.3440382346        12.1021407975         0.0000000000         0.0000000000       -83.4703095963      1594.1758355665      1306.0956658469 
  107000       289.5028647359     12525.0000000000         0.7094300506      1336.7370225571       472.9210208000       216.9644646240       318.0823039167        17.2408424624         0.0000000000         0.0000000000       -79.3665902031      1210.6680892845      -690.1674199799 
  108000       302.9472149287     12525.0000000000         0.7094300506      1404.4374080268       500.5062770450       244.9244511827       316.0872069628        18.4659103920         0.0000000000         0.0000000000       -78.9712914924      1479.0312997489       408.3660618017 
  109000       297.8597390685     12525.0000000000         0.7094300506      1423.8794314801       535.1282644705       236.9971918177       351.1704561539        26.0959423822         0.0000000000         0.0000000000       -79.1353258832      1425.6697630234         9.8012132734 
  110000       309.0208382820     12525.0000000000         0.7094300506      1420.5557963957       498.5022435650       255.3993121019       313.3637508957         9.2833091496         0.0000000000         0.0000000000       -79.5441285823      1885.3572295420      2544.5666715028 
  111000       304.9699281256     12525.0000000000         0.7094300506      1411.9496594396       501.9831753085       252.6977977536       307.2365877049        23.9872335812         0.0000000000         0.0000000000       -81.9384437312      1422.3309168306        56.8324443120 
  112000       302.0570187763     12525.0000000000         0.7094300506      1419.7459128289       518.4709409903       248.8224587717       334.9973859965         9.4229843878         0.0000000000         0.0000000000       -74.7718881657      1964.9606703309      2984.7913578059 
  113000       299.3237819529     12525.0000000000         0.7094300506      1386.8234645913       493.7038998046       245.5210870639       319.6051529226        12.4486191254         0.0000000000         0.0000000000       -83.8709593072      1408.5332894718       118.8509606372 
  114000       276.0814252736     12525.0000000000         0.7094300506      1319.4410126853       495.6717793244       260.2801187773       312.6156987847         4.7886647973         0.0000000000         0.0000000000       -82.0127030349      1625.6064962978      1676.1103344529 
  115000       285.1711175429     12525.0000000000         0.7094300506      1375.7418720682       524.8508979933       275.6592548680       315.5100801471        12.3929291937         0.0000000000         0.0000000000       -78.7113662155      1577.6089320491      1105.1260952974 
  116000       294.2922745468     12525.0000000000         0.7094300506      1400.0489295319       521.9423305558       263.1647947245       325.4156608006        13.8566543310         0.0000000000         0.0000000000       -80.4947793003      1712.9379125154      1712.9182941425 
  117000       300.3640543460     12525.0000000000         0.7094300506      1430.5842771527       534.3607571075       261.0025962120       345.5078489070         7.3978115086         0.0000000000         0.0000000000       -79.5474995201      1483.3591105597       288.9171000888 
  118000       312.0740643558     12525.0000000000         0.7094300506      1434.6792547846       503.5155139012       259.1210418160       316.1983377199        15.5793950533         0.0000000000         0.0000000000       -87.3832606880      1654.3930869971      1202.8286809090 
  119000       295.7394100837     12525.0000000000         0.7094300506      1385.0597896913       502.6352409270       251.7721440013       329.4838669830         7.0029004441         0.0000000000         0.0000000000       -85.6236705014      1801.0022731971      2277.0871716691 
  120000       294.8177718639     12525.0000000000         0.7094300506      1381.3569601961       501.6823871284       257.4700306806       314.7600186917        10.5435484464         0.0000000000         0.0000000000       -81.0912106904      1556.4268729132       958.4244654051 
Loop time of 62.069 on 64 procs for 50000 steps with 1002 atoms

Performance: 69.600 ns/day, 0.345 hours/ns, 805.556 timesteps/s
98.8% CPU use with 64 MPI tasks x no OpenMP threads

MPI task timing breakdown:
Section |  min time  |  avg time  |  max time  |%varavg| %total
---------------------------------------------------------------
Pair    | 5.1686     | 8.8946     | 13.032     |  69.8 | 14.33
Bond    | 0.23226    | 0.25198    | 0.29031    |   2.5 |  0.41
Kspace  | 0.0025444  | 0.0029524  | 0.0042074  |   0.5 |  0.00
Neigh   | 23.844     | 25.382     | 25.747     |   8.8 | 40.89
Comm    | 21.525     | 25.823     | 29.772     |  40.3 | 41.60
Output  | 0.046971   | 0.047027   | 0.047373   |   0.0 |  0.08
Modify  | 1.1369     | 1.2404     | 1.3016     |   4.0 |  2.00
Other   |            | 0.4266     |            |       |  0.69

Nlocal:    15.6562 ave 32 max 1 min
Histogram: 1 5 8 9 13 9 11 6 0 2
Nghost:    4301.88 ave 4409 max 4121 min
Histogram: 1 2 1 6 9 10 8 12 7 8
Neighs:    10712.4 ave 23059 max 1079 min
Histogram: 2 7 9 13 10 9 4 5 3 2

Total # of neighbors = 685592
Ave neighs/atom = 684.224
Ave special neighs/atom = 5
Neighbor list builds = 50000
Dangerous builds not checked
unfix anneal
undump anneal

# RETURN TO LESS FREQUENT NEIGHBOR BUILDS
neigh_modify every 1 delay 10 check yes one 10000 # More relaxed rebuild criteria can be used

#===========================================================
# RUN EQUILIBRIUM SIM
#===========================================================

# UPDATE RUN PARAMETERS AND CREATE FIX
fix equil all nvt temp ${FINAL_TEMP} ${FINAL_TEMP} 100.0 # NVT, nose-hoover 100 fs T relaxation
fix equil all nvt temp 298.0 ${FINAL_TEMP} 100.0 
fix equil all nvt temp 298.0 298.0 100.0 

# CREATE COORDINATE DUMPS FOR EQUILIBRIUM
dump equil all custom ${coords_freq} equil.lammpstrj id type x y z mol
dump equil all custom 1000 equil.lammpstrj id type x y z mol
dump_modify equil sort id format float %20.10g

# RUN EQUIL
run		${nSteps_equil}
run		100000
PPPM initialization ...
WARNING: Using 12-bit tables for long-range coulomb (../kspace.cpp:321)
  G vector (1/distance) = 0.184168
  grid = 8 8 8
  stencil order = 5
  estimated absolute RMS force accuracy = 0.00816917
  estimated relative force accuracy = 2.46012e-05
  using double precision FFTs
  3d grid and FFT values/proc = 343 8
Per MPI rank memory allocation (min/avg/max) = 11.15 | 11.2 | 11.27 Mbytes
Step Temp Volume Density TotEng PotEng E_bond E_angle E_dihed E_coul E_long E_vdwl Enthalpy Press 
  120000       294.8177718639     12525.0000000000         0.7094300506      1381.3569601961       501.6823871284       257.4700306806       314.7600186917        10.5435484464         0.0000000000         0.0000000000       -81.0912106904      1556.4268729132       958.4244654051 
  121000       286.2552060713     12525.0000000000         0.7094300506      1355.0186637441       500.8929962269       256.7746524591       317.0451155830        10.6927641276         0.0000000000         0.0000000000       -83.6195359428      1444.7783644223       491.3916492120 
  122000       293.8582243468     12525.0000000000         0.7094300506      1364.5260782708       487.7145943143       241.6588166923       305.8752528964        18.7399868178         0.0000000000         0.0000000000       -78.5594620922      1896.3908198591      2911.7063732610 
  123000       292.7138190391     12525.0000000000         0.7094300506      1379.5467052042       506.1498873449       247.1137190583       320.2679913752        23.9090170261         0.0000000000         0.0000000000       -85.1408401147      1306.4905606819      -399.9476276172 
  124000       301.9033176840     12525.0000000000         0.7094300506      1413.2572141200       512.4408541957       249.6045586096       329.6760745769        13.3742270316         0.0000000000         0.0000000000       -80.2140060225      1232.4261646776      -989.9639475489 
  125000       305.0530012177     12525.0000000000         0.7094300506      1421.5564401490       511.3420832847       239.4369643177       345.9315977715         7.0052123402         0.0000000000         0.0000000000       -81.0316911447      1629.3858599853      1137.7671783266 
  126000       298.8655869065     12525.0000000000         0.7094300506      1397.4539970732       505.7015904781       256.0863828155       323.3594623795        10.6749774971         0.0000000000         0.0000000000       -84.4192322140      1749.0313042200      1924.7184591637 
  127000       280.6511153820     12525.0000000000         0.7094300506      1295.6985242265       458.2942912868       244.5860667123       286.0093700870         9.9032616794         0.0000000000         0.0000000000       -82.2044071919       963.7142677190     -1817.4558302332 
  128000       301.5664816175     12525.0000000000         0.7094300506      1394.6557032399       494.8443916922       251.4954087835       317.6241075914        14.1323063425         0.0000000000         0.0000000000       -88.4074310252      1591.8787723188      1079.7024549443 
  129000       296.8620140034     12525.0000000000         0.7094300506      1409.1635646070       523.3894005276       255.5590489005       331.4954617676        17.9855628971         0.0000000000         0.0000000000       -81.6506730376      1595.6828614086      1021.1043950976 
  130000       292.2401072992     12525.0000000000         0.7094300506      1369.8071741412       497.8238130419       237.8926731834       321.9439217807        17.7148382906         0.0000000000         0.0000000000       -79.7276202128      1122.9975326967     -1351.1653429594 
  131000       289.3560745390     12525.0000000000         0.7094300506      1327.9412790364       464.5632685271       229.2618566865       297.8879143766        17.1618888248         0.0000000000         0.0000000000       -79.7483913608      1221.0841331795      -584.9920257751 
  132000       297.0582648155     12525.0000000000         0.7094300506      1376.8610181938       490.5012827350       231.6892114148       319.3338228373        22.9752809850         0.0000000000         0.0000000000       -83.4970325021      1625.9322021569      1363.5462120977 
  133000       295.6782493962     12525.0000000000         0.7094300506      1360.6791020023       478.4370439385       242.4640998291       311.8850176952         4.0524787964         0.0000000000         0.0000000000       -79.9645523823      1527.8938273222       915.4210522828 
  134000       294.8684001067     12525.0000000000         0.7094300506      1374.3707867368       494.5451495809       250.6417086269       313.3113583739         9.5758895051         0.0000000000         0.0000000000       -78.9838069250      1543.1353063133       923.9054383707 
  135000       295.6503641999     12525.0000000000         0.7094300506      1392.7446241002       510.5857696301       264.5583271107       313.7530832236        10.8143130345         0.0000000000         0.0000000000       -78.5399537386      1451.4139891339       321.1868558414 
  136000       297.3013530432     12525.0000000000         0.7094300506      1381.6216782366       494.5366183459       251.5132797760       317.8995717653        10.1038398240         0.0000000000         0.0000000000       -84.9800730194      1497.3266239077       633.4295195476 
  137000       296.5186018709     12525.0000000000         0.7094300506      1380.1635009322       495.4140068352       248.3387290273       312.0725356683        12.4259421888         0.0000000000         0.0000000000       -77.4232000492      1621.2320106709      1319.7353787775 
  138000       292.2700950883     12525.0000000000         0.7094300506      1380.4288793543       508.3560409639       267.6880875289       312.5533372515         7.3887795529         0.0000000000         0.0000000000       -79.2741633694      1249.6299293959      -716.0620105639 
  139000       305.1681916319     12525.0000000000         0.7094300506      1373.0505784126       462.4925174432       235.4310545523       297.1746855504        15.7363210894         0.0000000000         0.0000000000       -85.8495437490      1660.9605294582      1576.1699805129 
  140000       287.6908829315     12525.0000000000         0.7094300506      1360.7720522062       502.3626251953       265.0202048896       296.4082055413        17.9042628048         0.0000000000         0.0000000000       -76.9700480404      1053.3164191911     -1683.1732885164 
  141000       300.8026644213     12525.0000000000         0.7094300506      1388.8192360296       491.2869952507       248.6290446026       314.6163637418        11.9145924842         0.0000000000         0.0000000000       -83.8730055779      1944.4403980388      3041.7614706127 
  142000       287.1505766288     12525.0000000000         0.7094300506      1375.1476885331       518.3504225300       266.2603894605       309.8320679673        13.3272034881         0.0000000000         0.0000000000       -71.0692383859      1532.6699418962       862.3593804657 
  143000       297.6943636259     12525.0000000000         0.7094300506      1375.7456875382       487.4879662629       239.4406383135       314.6758889670        14.5712716930         0.0000000000         0.0000000000       -81.1998327106      1838.7362116972      2534.6528065153 
  144000       306.0769052234     12525.0000000000         0.7094300506      1432.4887193114       519.2192470335       257.4878178492       321.9189492243        15.4341020089         0.0000000000         0.0000000000       -75.6216220489      1518.9650020669       473.4164984937 
  145000       307.0641253619     12525.0000000000         0.7094300506      1418.6898467544       502.4747160504       259.2058173496       311.8487631306        10.1292464906         0.0000000000         0.0000000000       -78.7091109203       929.9955634840     -2675.3686565594 
  146000       299.9754496466     12525.0000000000         0.7094300506      1403.1389600821       508.0749551873       258.7833747059       312.6434854094        13.2904769763         0.0000000000         0.0000000000       -76.6423819043      1435.4269486726       176.7613733482 
  147000       301.6958919815     12525.0000000000         0.7094300506      1395.2087332529       495.0112882438       263.6027132048       311.5750286891        12.3614988032         0.0000000000         0.0000000000       -92.5279524534      1787.5868151050      2148.0832856956 
  148000       292.4610163660     12525.0000000000         0.7094300506      1389.9747395194       517.3322319655       260.7526437338       327.2879463263         5.4077693022         0.0000000000         0.0000000000       -76.1161273967      1710.1359290786      1752.7301646777 
  149000       296.6244315420     12525.0000000000         0.7094300506      1398.4971482312       513.4318805287       253.1647021847       335.9786838327        10.3217586172         0.0000000000         0.0000000000       -86.0332641059      1632.8136979370      1282.7716105069 
  150000       302.9425024233     12525.0000000000         0.7094300506      1424.3413788095       520.4243089582       284.4097211710       317.9792467041        -0.3445519811         0.0000000000         0.0000000000       -81.6201069357      1653.5560034996      1254.8409987879 
  151000       292.3259290629     12525.0000000000         0.7094300506      1438.7075001913       566.4680648979       268.4809538056       372.2955492601         6.1360418552         0.0000000000         0.0000000000       -80.4444800230      2000.1561681528      3073.6642926934 
  152000       307.4550331072     12525.0000000000         0.7094300506      1424.7859477484       507.4044300867       248.9507707445       326.6339698978        12.1013204621         0.0000000000         0.0000000000       -80.2816310177      1214.2792638637     -1152.4239250204 
  153000       299.2964991658     12525.0000000000         0.7094300506      1398.4960973829       505.4579387271       255.9733779967       315.6929169282        14.1879603535         0.0000000000         0.0000000000       -80.3963165513      1686.9214467549      1578.9915410985 
  154000       282.8056675709     12525.0000000000         0.7094300506      1331.5955379107       487.7625718422       234.6046219674       320.1616737246        10.5868874704         0.0000000000         0.0000000000       -77.5906113202      1644.8164750772      1714.7355853347 
  155000       301.0485613086     12525.0000000000         0.7094300506      1380.2527618006       481.9868161370       232.9610355361       320.6011677006         6.5097511653         0.0000000000         0.0000000000       -78.0851382650      1328.8732881656      -281.2781693164 
  156000       306.9215481275     12525.0000000000         0.7094300506      1424.4015409474       508.6118308920       256.1075281365       325.7842024083         9.7079583794         0.0000000000         0.0000000000       -82.9878580322      1599.7545243692       959.9741428146 
  157000       299.1515357648     12525.0000000000         0.7094300506      1431.6097951888       539.0041770039       259.4609781038       355.0089851145         5.0944484113         0.0000000000         0.0000000000       -80.5602346258      1469.0595555757       205.0196177135 
  158000       297.7887585455     12525.0000000000         0.7094300506      1391.4075374106       502.8681614369       253.1555544088       315.9044736371        18.7364316456         0.0000000000         0.0000000000       -84.9282982546      1370.1545989112      -116.3497251095 
  159000       301.1718652368     12525.0000000000         0.7094300506      1362.9728212769       464.3389624790       238.6036243986       297.0026812746         7.4649954691         0.0000000000         0.0000000000       -78.7323386633      1334.7586373859      -154.4592311314 
  160000       292.4523219086     12525.0000000000         0.7094300506      1392.7650890742       520.1485239629       261.0860004189       330.6328227446         9.4211649921         0.0000000000         0.0000000000       -80.9914641928      1667.6764754472      1505.0090242754 
  161000       304.9575196811     12525.0000000000         0.7094300506      1400.5357960160       490.6063360881       256.7200344854       302.8466323136        13.5822935914         0.0000000000         0.0000000000       -82.5426243023      1524.8201784659       680.3978534004 
  162000       303.6084058150     12525.0000000000         0.7094300506      1406.9378056098       501.0338193047       264.5776640462       311.3418510228         7.1494621330         0.0000000000         0.0000000000       -82.0351578973      1319.0013868679      -481.4100482165 
  163000       296.4206685226     12525.0000000000         0.7094300506      1391.8291163496       507.3718348820       258.7548327150       316.4532509713        11.7352940203         0.0000000000         0.0000000000       -79.5715428247      1646.9065740266      1396.4277026061 
  164000       306.9563291897     12525.0000000000         0.7094300506      1416.7035842946       500.8100948239       233.5666231130       331.4804280462        13.8801433646         0.0000000000         0.0000000000       -78.1170997000      1889.2175020152      2586.7888545744 
  165000       305.0235190394     12525.0000000000         0.7094300506      1400.7190472361       490.5926590262       246.0488601436       313.0906935404        12.0525345306         0.0000000000         0.0000000000       -80.5994291884      1470.1840946593       380.2880798169 
  166000       287.7542655305     12525.0000000000         0.7094300506      1390.0649720580       531.4664246278       252.5372252351       335.1262234834        21.5743878764         0.0000000000         0.0000000000       -77.7714119671      1569.5139635526       982.3978379352 
  167000       289.0098588895     12525.0000000000         0.7094300506      1376.2842678797       513.9392924609       249.5992717820       322.3845144957        21.3879840186         0.0000000000         0.0000000000       -79.4324778354      1806.7465975079      2356.5764199450 
  168000       295.8935535228     12525.0000000000         0.7094300506      1379.3503145588       496.4658340099       258.0647856317       310.7313611720         6.5350888079         0.0000000000         0.0000000000       -78.8654016016      1349.0502548877      -165.8784084678 
  169000       298.6169323208     12525.0000000000         0.7094300506      1392.2215625420       501.2110892269       259.0512792140       313.0816108072         7.4756144119         0.0000000000         0.0000000000       -78.3974152062      1461.5849057122       379.7312974276 
  170000       291.6686400681     12525.0000000000         0.7094300506      1402.8384472380       532.5602248397       256.2074039317       347.2782493391         8.8949970701         0.0000000000         0.0000000000       -79.8204255013      1808.6198325412      2221.4599941512 
  171000       293.4219513968     12525.0000000000         0.7094300506      1375.4086111344       499.8988744186       247.1023450923       319.3909074839        17.3060164682         0.0000000000         0.0000000000       -83.9003946259      1526.0484500342       824.6814362645 
  172000       297.8180129323     12525.0000000000         0.7094300506      1396.5059785179       507.8793135723       258.2027682530       305.5356725578        21.0654948335         0.0000000000         0.0000000000       -76.9246220720      1586.0865212817      1037.8632600522 
  173000       287.5612872771     12525.0000000000         0.7094300506      1386.9105904239       528.8878497422       263.7863472583       322.5380557780        19.0434910840         0.0000000000         0.0000000000       -76.4800443782      1266.3998039256      -659.7392112247 
  174000       300.7693956217     12525.0000000000         0.7094300506      1396.5583405598       499.1253669210       257.6869750507       313.1639158756         8.0778976036         0.0000000000         0.0000000000       -79.8034216090      1312.9606377887      -457.6576428466 
  175000       306.1702344248     12525.0000000000         0.7094300506      1420.3500460772       506.8020989812       258.9709070433       307.0656054241        16.5575848498         0.0000000000         0.0000000000       -75.7919983360      1303.9591416525      -637.1848173106 
  176000       313.1963550468     12525.0000000000         0.7094300506      1462.6053636766       528.0929420870       287.2596312428       310.1964736420        13.8717288145         0.0000000000         0.0000000000       -83.2348916123      1301.9477087600      -879.5242119955 
  177000       299.8359597705     12525.0000000000         0.7094300506      1418.3546818001       523.7068855227       264.6601578705       333.7425857376         4.4223999609         0.0000000000         0.0000000000       -79.1182580464      1103.7905006234     -1722.0892071106 
  178000       295.4838862676     12525.0000000000         0.7094300506      1385.4808945414       503.8187754041       259.3652150849       311.6570540211        15.9039741127         0.0000000000         0.0000000000       -83.1074678145      1931.3927370399      2988.6075664554 
  179000       302.6601395359     12525.0000000000         0.7094300506      1414.2078994818       511.1333414332       265.3068812509       311.7654609287        16.0900123840         0.0000000000         0.0000000000       -82.0290131304      1679.3151830382      1451.3362266201 
  180000       303.5492049718     12525.0000000000         0.7094300506      1430.0575306315       524.3301872613       245.9510422664       348.7611542677         8.3496032759         0.0000000000         0.0000000000       -78.7316125487      1617.8586181327      1028.1215892401 
  181000       314.5957850440     12525.0000000000         0.7094300506      1430.9152322716       492.2272042470       258.9335523508       303.4212712607        12.5341507366         0.0000000000         0.0000000000       -82.6617701011      1591.2089197003       877.5316631928 
  182000       292.0467372876     12525.0000000000         0.7094300506      1395.8420960414       524.4357106153       263.5668750967       324.6581591168        17.0584251615         0.0000000000         0.0000000000       -80.8477487598      1372.0893021302      -130.0352439369 
  183000       279.6809498742     12525.0000000000         0.7094300506      1309.4510516959       474.9415897311       239.2139128002       306.5751596139        11.6961324472         0.0000000000         0.0000000000       -82.5436151303      1158.8721507878      -824.3478297575 
  184000       299.8605918234     12525.0000000000         0.7094300506      1393.2040287716       498.4827355996       254.7419906694       317.2292550422        11.2149907046         0.0000000000         0.0000000000       -84.7035008167      1783.7776661667      2138.2048109358 
  185000       317.1183435470     12525.0000000000         0.7094300506      1477.5242616884       531.3094466586       260.9674959760       331.0775865275        12.4334147001         0.0000000000         0.0000000000       -73.1690505451      1519.0509560558       227.3388912547 
  186000       296.2210853192     12525.0000000000         0.7094300506      1426.0411000173       542.1793330879       264.7170708714       346.0129733414        11.5186170411         0.0000000000         0.0000000000       -80.0693281660      1282.8924986209      -783.6704756260 
  187000       295.7812357538     12525.0000000000         0.7094300506      1395.8411849517       513.2918371352       269.4157019589       302.8952043984        19.5909659001         0.0000000000         0.0000000000       -78.6100351222      1569.1628201219       948.8534777510 
  188000       296.4355764346     12525.0000000000         0.7094300506      1373.7812799629       489.2795164037       245.4126769202       308.4506678658        15.1036230455         0.0000000000         0.0000000000       -79.6874514278      1576.0388657063      1107.2640380161 
  189000       298.0161613537     12525.0000000000         0.7094300506      1375.9569809955       486.7390826013       251.6473518013       309.5851409985         7.2111538538         0.0000000000         0.0000000000       -81.7045640523      1350.6823737927      -138.3664475566 
  190000       296.5152823010     12525.0000000000         0.7094300506      1388.6501513687       503.9105621737       244.8807643106       332.0984579953         7.3748531086         0.0000000000         0.0000000000       -80.4435132407      1966.5621318524      3163.7930947131 
  191000       291.0564561869     12525.0000000000         0.7094300506      1378.5218640975       510.0702703686       271.5287497045       310.3344770764         8.3502577021         0.0000000000         0.0000000000       -80.1432141144      1473.2842143667       518.7787752203 
  192000       294.3756988429     12525.0000000000         0.7094300506      1408.0828393235       529.7273196951       272.5543434288       321.3644830928        16.4887368478         0.0000000000         0.0000000000       -80.6802436742      1864.9183628676      2500.9571069951 
  193000       290.1815234344     12525.0000000000         0.7094300506      1369.5733350580       503.7323576791       273.6669774011       295.7438210897        13.5452434284         0.0000000000         0.0000000000       -79.2236842401      1628.6513164233      1418.3286661571 
  194000       300.5308772668     12525.0000000000         0.7094300506      1424.4305545372       527.7092697859       292.4448236744       308.6703121922         8.0543012023         0.0000000000         0.0000000000       -81.4601672831      1205.6429104712     -1197.7582415323 
  195000       294.8757804092     12525.0000000000         0.7094300506      1384.6521356015       504.8044771665       254.9182697278       316.5451223351         7.2708702499         0.0000000000         0.0000000000       -73.9297851463      1711.7901926438      1790.9251942175 
  196000       291.4313771288     12525.0000000000         0.7094300506      1380.3799882321       510.8097088235       274.2381504748       303.3305193567        13.8463254752         0.0000000000         0.0000000000       -80.6052864833      1544.3211301225       897.4997407360 
  197000       280.4354132473     12525.0000000000         0.7094300506      1321.5011234320       484.7405005505       252.6011386951       304.3240744829        12.3171944576         0.0000000000         0.0000000000       -84.5019070851      1748.3656582788      2336.8802055217 
  198000       299.8414128867     12525.0000000000         0.7094300506      1411.2296381442       516.5655709082       271.0339098286       325.5726334984         6.0228924723         0.0000000000         0.0000000000       -86.0638648911      1413.3355039574        11.5286132550 
  199000       297.0754197997     12525.0000000000         0.7094300506      1419.6601688747       533.2492465309       259.8622875507       340.7145199268        14.9335277892         0.0000000000         0.0000000000       -82.2610887359      1138.3462811709     -1540.0596724421 
  200000       296.2449953444     12525.0000000000         0.7094300506      1411.5878467298       527.6547372857       274.2658187919       321.2788162353        15.0368289453         0.0000000000         0.0000000000       -82.9267266868      1159.7970232456     -1378.4349443400 
  201000       307.5258934361     12525.0000000000         0.7094300506      1462.3558820151       544.7629319519       287.4818947220       316.9027338486        20.9171195767         0.0000000000         0.0000000000       -80.5388161954      1859.1816891018      2172.4324649129 
  202000       296.5566087359     12525.0000000000         0.7094300506      1397.4376635256       512.5747648919       251.1529583025       324.2126228364        20.9125958890         0.0000000000         0.0000000000       -83.7034121360      1456.5916288715       323.8398119546 
  203000       302.2642692982     12525.0000000000         0.7094300506      1387.1435300045       485.2501659528       245.8559041868       308.7397576635        11.1649040651         0.0000000000         0.0000000000       -80.5103999626      1662.5858743069      1507.9157662832 
  204000       293.4896641318     12525.0000000000         0.7094300506      1366.5771418598       490.8653645042       244.0792963732       311.8837529253         9.5867100889         0.0000000000         0.0000000000       -74.6843948832      1249.7388663813      -639.6339609497 
  205000       287.7504438999     12525.0000000000         0.7094300506      1378.1339281880       519.5467837041       251.0097611144       336.7521985675        11.3685764229         0.0000000000         0.0000000000       -79.5837524007      1316.3830513889      -338.0566664248 
  206000       304.3397341448     12525.0000000000         0.7094300506      1432.0146319428       523.9285148514       270.9358870509       316.6708721580        19.4498247634         0.0000000000         0.0000000000       -83.1280691210      1386.8293560316      -247.3678842771 
  207000       302.7423541304     12525.0000000000         0.7094300506      1445.1495484447       541.8296792405       284.5899185339       325.2477341139        15.7423708919         0.0000000000         0.0000000000       -83.7503442993      1220.7342853168     -1228.5667780028 
  208000       298.2098529743     12525.0000000000         0.7094300506      1416.0931944670       526.2973607853       264.3963779130       336.6873296044         8.2873119060         0.0000000000         0.0000000000       -83.0736586381      1524.3759944623       592.7968037875 
  209000       286.5941593826     12525.0000000000         0.7094300506      1366.9368416832       511.7998083736       247.9541016344       331.2033276230        16.8768704027         0.0000000000         0.0000000000       -84.2344912865      1856.9833432003      2682.7714080097 
  210000       296.2666870297     12525.0000000000         0.7094300506      1386.8050036633       502.8071707669       257.9278415420       306.1222719691        15.4404643337         0.0000000000         0.0000000000       -76.6834070779      1715.4226747477      1799.0253770261 
  211000       285.3595393473     12525.0000000000         0.7094300506      1367.0471510067       515.5939656741       267.2308798092       315.8661164877        10.1950515401         0.0000000000         0.0000000000       -77.6980821630      1267.2839104350      -546.1562699611 
  212000       301.6265830127     12525.0000000000         0.7094300506      1474.7890737895       574.7984322482       283.4527886171       356.9633347413        13.3946866802         0.0000000000         0.0000000000       -79.0123777904      1043.5406557421     -2360.8798799816 
  213000       299.1911898330     12525.0000000000         0.7094300506      1428.7335504000       536.0096127688       254.7939361135       349.9086647443         7.5523422891         0.0000000000         0.0000000000       -76.2453303782      2063.4839079655      3474.9561627906 
  214000       300.7256482471     12525.0000000000         0.7094300506      1389.3766028413       492.0741622192       261.7710177811       304.1194267266         1.5807494204         0.0000000000         0.0000000000       -75.3970317089      1114.8121397069     -1503.1097846270 
  215000       287.3155251372     12525.0000000000         0.7094300506      1353.3427036551       496.0532658001       251.7011014123       321.4619176901         3.9812996191         0.0000000000         0.0000000000       -81.0910529214      1616.4302003745      1440.2788547998 
  216000       303.3037990842     12525.0000000000         0.7094300506      1402.7158963892       497.7207928635       256.8640763664       316.6877116993        10.1215656172         0.0000000000         0.0000000000       -85.9525608194      1539.0198141783       746.1990899070 
  217000       307.4419808420     12525.0000000000         0.7094300506      1451.8763869179       534.5338144860       263.7494613356       336.6731148497        15.1031222103         0.0000000000         0.0000000000       -80.9918839095      1416.0840956266      -195.9457631189 
  218000       299.7367957795     12525.0000000000         0.7094300506      1424.3986036064       530.0466919387       274.8823666745       324.9119573234         8.6111046429         0.0000000000         0.0000000000       -78.3587367021      1942.9048722237      2838.5750903517 
  219000       295.2909169811     12525.0000000000         0.7094300506      1392.8386310674       511.7522919233       254.8294418921       322.8987372248        13.9365741424         0.0000000000         0.0000000000       -79.9124613361      1677.1723293477      1556.5916983768 
  220000       296.8148576256     12525.0000000000         0.7094300506      1364.6605407453       479.0270814350       239.9596627926       314.9795358765         6.6674223575         0.0000000000         0.0000000000       -82.5795395916      1649.9601488192      1561.8795948701 
Loop time of 51.6889 on 64 procs for 100000 steps with 1002 atoms

Performance: 167.154 ns/day, 0.144 hours/ns, 1934.653 timesteps/s
98.9% CPU use with 64 MPI tasks x no OpenMP threads

MPI task timing breakdown:
Section |  min time  |  avg time  |  max time  |%varavg| %total
---------------------------------------------------------------
Pair    | 9.9279     | 15.776     | 22.606     |  93.6 | 30.52
Bond    | 0.4208     | 0.46893    | 0.49702    |   2.3 |  0.91
Kspace  | 0.0046725  | 0.005487   | 0.008146   |   0.7 |  0.01
Neigh   | 1.7733     | 1.8938     | 1.9183     |   2.5 |  3.66
Comm    | 25.009     | 31.885     | 37.787     |  66.0 | 61.69
Output  | 0.047303   | 0.047348   | 0.048143   |   0.0 |  0.09
Modify  | 0.84491    | 0.92054    | 0.99502    |   3.6 |  1.78
Other   |            | 0.6918     |            |       |  1.34

Nlocal:    15.6562 ave 27 max 3 min
Histogram: 2 3 8 5 10 10 11 8 3 4
Nghost:    4261.23 ave 4554 max 3930 min
Histogram: 1 3 8 8 9 12 7 7 4 5
Neighs:    10736.5 ave 24815 max 1352 min
Histogram: 2 4 14 11 19 6 5 0 2 1

Total # of neighbors = 687137
Ave neighs/atom = 685.765
Ave special neighs/atom = 5
Neighbor list builds = 4213
Dangerous builds = 0
unfix equil
undump equil

# WRITE RESTART FILES, CLEANUP, AND EXIT
write_restart   md-1.end.restart
PPPM initialization ...
WARNING: Using 12-bit tables for long-range coulomb (../kspace.cpp:321)
  G vector (1/distance) = 0.184168
  grid = 8 8 8
  stencil order = 5
  estimated absolute RMS force accuracy = 0.00816917
  estimated relative force accuracy = 2.46012e-05
  using double precision FFTs
  3d grid and FFT values/proc = 343 8
write_data      md-1.end.data pair ii
PPPM initialization ...
WARNING: Using 12-bit tables for long-range coulomb (../kspace.cpp:321)
  G vector (1/distance) = 0.184168
  grid = 8 8 8
  stencil order = 5
  estimated absolute RMS force accuracy = 0.00816917
  estimated relative force accuracy = 2.46012e-05
  using double precision FFTs
  3d grid and FFT values/proc = 343 8
unfix		averages
Total wall time: 0:03:10
