
#===========================================================
# GENERAL PROCEDURES
#===========================================================
units		real	# g/mol, angstroms, fs, kcal/mol, K, atm, charge*angstrom
dimension	3	# 3 dimensional simulation
newton		on	# use Newton's 3rd law
boundary	p p p	# periodic boundary conditions
atom_style	full    # molecular + charge

#===========================================================
# FORCE FIELD DEFINITION
#===========================================================
special_bonds  lj   0.0 0.0 0.0  coul 0.0 0.0 0.0     # NO     1-4 LJ/COUL interactions
pair_style     hybrid lj/cut/coul/long 14.0 14.0 # outer_LJ outer_Coul (cutoff values, see LAMMPS Doc)
kspace_style   pppm 0.0001          # long-range electrostatics sum method
bond_style     harmonic             # parameters needed: k_bond, r0
angle_style    harmonic             # parameters needed: k_theta, theta0
dihedral_style hybrid opls            # parameters needed: V1, V2, V3, V4
pair_modify    shift yes mix arithmetic       # using Lorenz-Berthelot mixing rules

#===========================================================
# SETUP SIMULATIONS
#===========================================================

# READ IN COEFFICIENTS/COORDINATES/TOPOLOGY
read_data ${data_name}
read_data md-8.data
  orthogonal box = (-11.2213 -11.2213 -11.2213) to (11.2213 11.2213 11.2213)
  4 by 4 by 4 MPI processor grid
  reading atoms ...
  1002 atoms
  reading velocities ...
  1002 velocities
  scanning bonds ...
  1 = max bonds/atom
  scanning angles ...
  6 = max angles/atom
  scanning dihedrals ...
  3 = max dihedrals/atom
  reading bonds ...
  835 bonds
  reading angles ...
  1169 angles
  reading dihedrals ...
  501 dihedrals
  4 = max # of 1-2 neighbors
  3 = max # of 1-3 neighbors
  4 = max # of 1-4 neighbors
  5 = max # of special neighbors
include ${settings_name}
include md-8.in.settings
     # Non-bonded interactions (pair-wise)
     pair_coeff           1          1          lj/cut/coul/long     0.011550             2.469209
     pair_coeff           1          2          lj/cut/coul/long     0.002327             2.253885
     pair_coeff           1          3          lj/cut/coul/long     0.031692             3.120120
     pair_coeff           1          4          lj/cut/coul/long     0.042509             2.727257
     pair_coeff           2          2          lj/cut/coul/long     0.001000             1.813294
     pair_coeff           2          3          lj/cut/coul/long     0.004120             3.063783
     pair_coeff           2          4          lj/cut/coul/long     0.006452             2.609759
     pair_coeff           3          3          lj/cut/coul/long     0.201778             3.426552
     pair_coeff           3          4          lj/cut/coul/long     0.176417             3.216539
     pair_coeff           4          4          lj/cut/coul/long     0.195994             2.901222

     # Stretching interactions
     bond_coeff           1           366.904251           1.096103
     bond_coeff           2           612.219900           0.957501
     bond_coeff           3           368.709924           1.411527

     # Bending interactions
     angle_coeff          1           40.926667            108.205025
     angle_coeff          2           61.328715            112.232133
     angle_coeff          3           49.873049            108.741688

     # Dihedral interactions
     dihedral_coeff       1          opls                  0.105414            -0.205941             0.372587            -0.070860

# SET RUN PARAMETERS
timestep	1.0		# fs
run_style	verlet 		# Velocity-Verlet integrator
neigh_modify every 1 delay 0 check no one 10000 # More relaxed rebuild criteria can be used

#===========================================================
# RUN CONSTRAINED RELAXATION
#===========================================================

# SET OUTPUTS
thermo_style    custom step temp vol density etotal pe ebond eangle edihed ecoul elong evdwl enthalpy press
thermo_modify   format float %20.10f
thermo ${thermo_freq}
thermo 1000

# DECLARE RELEVANT OUTPUT VARIABLES
variable        my_step equal   step
variable        my_temp equal   temp
variable        my_rho  equal   density
variable        my_pe   equal   pe
variable        my_ebon equal   ebond
variable        my_eang equal   eangle
variable        my_edih equal   edihed
variable        my_evdw equal   evdwl
variable        my_eel  equal   (ecoul+elong)
variable        my_ent  equal   enthalpy
variable        my_P    equal   press
variable        my_vol  equal   vol

fix  averages all ave/time ${dump4avg} $(v_avg_freq/v_dump4avg) ${avg_freq} v_my_temp v_my_rho v_my_vol v_my_pe v_my_edih v_my_evdw v_my_eel v_my_ent v_my_P file thermo.avg
fix  averages all ave/time 100 $(v_avg_freq/v_dump4avg) ${avg_freq} v_my_temp v_my_rho v_my_vol v_my_pe v_my_edih v_my_evdw v_my_eel v_my_ent v_my_P file thermo.avg
fix  averages all ave/time 100 10 ${avg_freq} v_my_temp v_my_rho v_my_vol v_my_pe v_my_edih v_my_evdw v_my_eel v_my_ent v_my_P file thermo.avg
fix  averages all ave/time 100 10 1000 v_my_temp v_my_rho v_my_vol v_my_pe v_my_edih v_my_evdw v_my_eel v_my_ent v_my_P file thermo.avg

# INITIALIZE VELOCITIES AND CREATE THE CONSTRAINED RELAXATION FIX
velocity        all create ${ANNEAL_TEMP} ${vseed} mom yes rot yes     # DRAW VELOCITIES
velocity        all create 100.0 ${vseed} mom yes rot yes     
velocity        all create 100.0 67201 mom yes rot yes     

fix relax all nve/limit 0.01
run             10000
PPPM initialization ...
WARNING: Using 12-bit tables for long-range coulomb (../kspace.cpp:321)
  G vector (1/distance) = 0.186275
  grid = 8 8 8
  stencil order = 5
  estimated absolute RMS force accuracy = 0.00737937
  estimated relative force accuracy = 2.22228e-05
  using double precision FFTs
  3d grid and FFT values/proc = 343 8
Neighbor list info ...
  update every 1 steps, delay 0 steps, check no
  max neighbors/atom: 10000, page size: 100000
  master list distance cutoff = 16
  ghost atom cutoff = 16
  binsize = 8, bins = 3 3 3
  1 neighbor lists, perpetual/occasional/extra = 1 0 0
  (1) pair lj/cut/coul/long, perpetual
      attributes: half, newton on
      pair build: half/bin/newton
      stencil: half/bin/3d/newton
      bin: standard
Per MPI rank memory allocation (min/avg/max) = 8.556 | 8.679 | 9.155 Mbytes
Step Temp Volume Density TotEng PotEng E_bond E_angle E_dihed E_coul E_long E_vdwl Enthalpy Press 
       0       100.0000000000     11303.5949692712         0.7860872057      -235.4949551211      -533.8740411261       309.5169281281       307.1262762732         9.8610774414      2369.6165955942     -3096.6142278851      -433.3806906780      -626.4686467977     -2371.6743582762 
    1000        25.5133476237     11303.5949692712         0.7860872057     -1385.7086212516     -1461.8351147003         9.1863592853        17.8057932287       -37.6507836567      2082.3764732751     -3100.5954923667      -432.9574644660     -1848.9711120756     -2810.1833806950 
    2000        20.9735253656     11303.5949692712         0.7860872057     -1433.3379690940     -1495.9185823828         8.8361214046        17.6026144241       -37.0887817425      2056.4372922655     -3100.7634530137      -440.9423757208     -1800.3793329561     -2226.4991472074 
    3000        19.7202188022     11303.5949692712         0.7860872057     -1456.3301584594     -1515.1711670796         8.1817954579        16.8964721100       -37.1977317436      2062.2491110145     -3100.5532010649      -464.7476128535     -1912.0187269421     -2764.2394264324 
    4000        16.8181355827     11303.5949692712         0.7860872057     -1474.4351686081     -1524.6169678428         8.2350487441        16.3805478262       -37.4271745179      2052.9347676119     -3100.7161994441      -464.0239580630     -1906.3865629291     -2620.2480313693 
    5000        15.4465079400     11303.5949692712         0.7860872057     -1486.6892653904     -1532.7784146013         7.9197481142        17.4184774830       -37.6113298680      2042.8717263199     -3100.5795213479      -462.7975153026     -1821.4925108740     -2030.9404169270 
    6000        14.7255847563     11303.5949692712         0.7860872057     -1498.6812146199     -1542.6192798246         8.0363541864        16.3256274260       -36.6983148858      2051.1915407703     -3100.6190186051      -480.8554687163     -1915.8544245274     -2530.6025084568 
    7000        13.9381198977     11303.5949692712         0.7860872057     -1509.2580302042     -1550.8464649613         8.4411650553        16.6971708720       -37.4359444777      2037.9246052496     -3100.7880253095      -475.6854363510     -1886.4651779092     -2288.1655185912 
    8000        14.1097483057     11303.5949692712         0.7860872057     -1516.6337712028     -1558.7343092349         8.1972838432        17.0366449927       -37.1035979359      2033.9526596402     -3099.8313112922      -480.9859884830     -1829.4143673607     -1897.3494520641 
    9000        12.5603019714     11303.5949692712         0.7860872057     -1523.6407068611     -1561.1180210829         8.3843798552        16.5751864667       -37.5637717070      2037.9602161809     -3100.0876638347      -486.3863680439     -1897.9510393930     -2270.5932307031 
   10000        11.4832106828     11303.5949692712         0.7860872057     -1528.0079686511     -1562.2714677304         7.9954542775        15.9028853354       -36.7213874210      2027.0869910439     -3099.3514725140      -477.1839384522     -1831.8466054241     -1843.1068873152 
Loop time of 12.4255 on 64 procs for 10000 steps with 1002 atoms

Performance: 69.534 ns/day, 0.345 hours/ns, 804.794 timesteps/s
99.0% CPU use with 64 MPI tasks x no OpenMP threads

MPI task timing breakdown:
Section |  min time  |  avg time  |  max time  |%varavg| %total
---------------------------------------------------------------
Pair    | 0.44323    | 1.9422     | 3.378      |  47.6 | 15.63
Bond    | 0.01458    | 0.049295   | 0.076333   |   6.0 |  0.40
Kspace  | 1.1841     | 2.6278     | 4.1447     |  41.3 | 21.15
Neigh   | 4.3161     | 4.5238     | 4.6941     |   4.5 | 36.41
Comm    | 2.9957     | 3.1748     | 3.406      |   5.7 | 25.55
Output  | 0.001641   | 0.0019414  | 0.0019729  |   0.1 |  0.02
Modify  | 0.008347   | 0.010166   | 0.012061   |   0.7 |  0.08
Other   |            | 0.09549    |            |       |  0.77

Nlocal:    15.6562 ave 24 max 0 min
Histogram: 2 2 3 3 2 4 14 21 7 6
Nghost:    4705.27 ave 5126 max 4201 min
Histogram: 2 2 7 5 10 9 12 7 7 3
Neighs:    11872.7 ave 22594 max 0 min
Histogram: 2 3 4 7 11 11 14 6 3 3

Total # of neighbors = 759854
Ave neighs/atom = 758.337
Ave special neighs/atom = 5
Neighbor list builds = 10000
Dangerous builds not checked
unfix relax

#===========================================================
# RUN RAMPED ANNEAL
#===========================================================

# REINITIALIZE THE VELOCITIES AND CREATE THE ANNEALING FIX
velocity        all create ${ANNEAL_TEMP} ${vseed} mom yes rot yes     # DRAW VELOCITIES
velocity        all create 100.0 ${vseed} mom yes rot yes     
velocity        all create 100.0 67201 mom yes rot yes     

fix mom all momentum 1000 linear 1 1 1 angular # Zero out system linear and angular momentum every ps
fix anneal all npt temp ${ANNEAL_TEMP} ${FINAL_TEMP} 100.0 iso ${pressure} ${pressure} 1000.0 # NPT, nose-hoover 100 fs T relaxation
fix anneal all npt temp 100.0 ${FINAL_TEMP} 100.0 iso ${pressure} ${pressure} 1000.0 
fix anneal all npt temp 100.0 298.0 100.0 iso ${pressure} ${pressure} 1000.0 
fix anneal all npt temp 100.0 298.0 100.0 iso 1.0 ${pressure} 1000.0 
fix anneal all npt temp 100.0 298.0 100.0 iso 1.0 1.0 1000.0 

# CREATE COORDINATE DUMPS FOR ANNEAL
dump anneal all custom ${coords_freq} anneal.lammpstrj id type x y z mol
dump anneal all custom 1000 anneal.lammpstrj id type x y z mol
dump_modify anneal sort id format float %20.10g

# RUN RAMPED ANNEAL
run ${nSteps_ramp}
run 50000
PPPM initialization ...
WARNING: Using 12-bit tables for long-range coulomb (../kspace.cpp:321)
  G vector (1/distance) = 0.186275
  grid = 8 8 8
  stencil order = 5
  estimated absolute RMS force accuracy = 0.00737937
  estimated relative force accuracy = 2.22228e-05
  using double precision FFTs
  3d grid and FFT values/proc = 343 8
Per MPI rank memory allocation (min/avg/max) = 9.83 | 10.38 | 10.54 Mbytes
Step Temp Volume Density TotEng PotEng E_bond E_angle E_dihed E_coul E_long E_vdwl Enthalpy Press 
   10000       100.0000000000     11303.5949692712         0.7860872057     -1263.8923817254     -1562.2714677304         7.9954542775        15.9028853354       -36.7213874210      2027.0869910439     -3099.3514725140      -477.1839384522     -1391.6539605480      -775.0108688056 
   11000        91.1269108070     10149.8216103152         0.8754450792     -1003.8657572044     -1275.7694007750       109.0419715255       102.8600960312       -21.7467055436      2107.2061582413     -3100.2287071089      -472.9022139205     -1560.4290964914     -3759.9346557216 
   12000       114.9122094609      9805.9374021154         0.9061460439      -959.3633801707     -1302.2373804684        86.2233772732       107.2265567676       -13.9127734426      2117.7119320310     -3099.5423009462      -499.9441721514      -994.4546249487      -245.3769523637 
   13000       110.8857387701      9892.7976559723         0.8981899451      -953.5864902558     -1284.4463441080        97.1122130746       110.4779610696       -13.1636227107      2107.7040674009     -3100.5074246159      -486.0695383267     -1354.6075703819     -2779.5352540376 
   14000       117.5432576771      9696.6464879725         0.9163592170      -925.3294932521     -1276.0539911695        92.6207243937       115.0807665904       -15.0497768213      2130.2355442325     -3100.6711378085      -498.2701117564      -793.8698451198       929.5976418312 
   15000       123.7323011104      9725.1978125635         0.9136689613      -912.9484335437     -1282.1397426899        93.1524907917       118.4296459912       -10.4974008510      2116.4348223500     -3100.8657580245      -498.7935429473      -832.0514799715       570.3715226857 
   16000       122.5885400966      9645.8840128495         0.9211816534      -908.4626927731     -1274.2412582601        93.6313538218       120.5711818662       -10.7976720511      2125.3323489110     -3100.7855859613      -502.1928848468      -808.5785357758       710.0332452466 
   17000       131.6048625348      9734.3368550280         0.9128111669      -858.2839379687     -1250.9653239380        97.9946619498       124.2161887230       -10.6633352306      2135.3035746521     -3101.1946474486      -496.6217665838      -528.2259752332      2324.9196837905 
   18000       127.4844931242      9656.4820798275         0.9201706491      -883.6946590530     -1264.0817244351        98.8217354595       125.7017121159        -6.6263850968      2135.7709952246     -3100.8305265666      -516.9192555718     -1031.9719582998     -1052.8823339374 
   19000       142.7025977254      9729.2307386481         0.9132902305      -814.9438132619     -1240.7385200602       116.6522150267       131.2363558434       -13.9591571165      2128.2836427819     -3100.7703820670      -502.1811945286      -813.7209750652         8.6181610036 
   20000       138.9201450737      9733.1222662187         0.9129250759      -788.9725584005     -1203.4812175482       125.6257669674       137.6628239659        -9.2258579943      2145.5794394011     -3099.6262972328      -503.4970926555      -993.3277615585     -1439.6523535083 
   21000       136.5769949930      9851.7348133618         0.9019336748      -793.6208749049     -1201.1380642580       121.2291599350       138.6615725922        -9.7631890535      2148.6419145818     -3100.5426506105      -499.3648717031      -824.9401472778      -217.9832188185 
   22000       156.6326933730      9735.2156792765         0.9127287650      -733.7401630791     -1201.0993619504       122.2284732294       141.8942262361        -6.2164038499      2165.4553607492     -3099.9842174075      -524.4768009078      -548.1531204127      1307.1522788405 
   23000       146.0214053765      9785.8064694270         0.9080101279      -724.2460831945     -1159.9434179285       124.4355457123       151.1302082654       -10.5316626545      2177.5215439326     -3100.6105409177      -501.8885122665      -620.5781223243       726.3936585461 
   24000       154.3732985617      9824.7910930029         0.9044071573      -679.0373718086     -1139.6550090928       137.3596662488       159.0359096874        -8.1624184239      2167.3451339174     -3100.7765153693      -494.4567851532      -672.6874011651        44.3172193894 
   25000       158.9846794062      9856.0504279810         0.9015387501      -695.4315776818     -1169.8086109821       119.4841970200       153.7531744671        -5.7575198084      2136.3783220706     -3100.9158359690      -472.7509487625      -287.5612693010      2837.5484455554 
   26000       159.6589379539      9853.4151350946         0.9017798663      -617.6123640465     -1094.0012438387       136.2679551165       179.5821820078        -4.0749372191      2187.2413845060     -3100.8267425696      -492.1910856803      -607.3606187139        71.3403341686 
   27000       162.4337631963     10101.9159212575         0.8795966481      -647.1100673097     -1131.7784452983       138.2286743980       162.5577127614        -8.9133730604      2159.1763135074     -3100.9357857841      -481.8919871206      -898.2227100716     -1704.4683439124 
   28000       169.3567610021      9916.4665283925         0.8960461227      -592.9913750197     -1098.3165305853       153.7495341255       173.9106857844       -10.4054367722      2170.2998701304     -3100.2341401918      -485.6370436617      -744.6276364455     -1048.5043309253 
   29000       182.1175972011      9735.6218931537         0.9126906818      -554.0911492790     -1097.4919712619       148.5890519569       187.7586482132        -1.1715970242      2158.2181322621     -3100.4484790045      -490.4377276653      -559.5190016158       -38.2286037471 
   30000       187.5311169819      9951.5900377922         0.8928835844      -515.7107261169     -1075.2643589425       145.9068236033       186.1775411936        -5.8697671958      2195.2449018495     -3099.6419769860      -497.0818814073      -643.9737740394      -883.7576573912 
   31000       183.6535225785     10154.0361297026         0.8750817183      -493.0424951744     -1041.0261972602       162.9225502198       189.7199952135         0.7298421898      2178.8193090677     -3099.7652766425      -473.4526173084      -380.0782397205       762.8276922786 
   32000       195.6672301326     10121.3163001553         0.8779106512      -455.6444568982     -1039.4745497792       160.7335654583       202.7939846711         3.8918622232      2168.4971515153     -3100.5132653292      -474.8778483178      -354.9872771899       681.9175556113 
   33000       192.7184232789     10072.1084070005         0.8821997366      -450.0115371546     -1025.0430070976       165.7792232991       206.5640697898         3.7227421934      2196.3270382691     -3100.7553570572      -496.6807235918      -615.9233104514     -1129.4861875093 
   34000       199.4176420943     10210.4601049707         0.8702459333      -405.8892183339     -1000.9097561477       161.9364416092       227.3323316020        -6.0320082789      2182.3794948189     -3100.6653979755      -465.8606179236       -99.6958709293      2056.2435286194 
   35000       204.5292388470      9903.4259738339         0.8972260112      -415.6707350920     -1025.9432085768       158.4635803187       201.4844272645         2.2183172066      2192.7752361373     -3099.6802414094      -481.2045280943      -265.9947900095      1036.3123170760 
   36000       203.5864226462     10054.0133403952         0.8837875068      -352.4162822561      -959.8755893782       169.8531841043       233.1382315205        -1.9679430707      2215.1785753333     -3099.7508610019      -476.3267762637      -317.2839867152       239.6024094054 
   37000       212.5849270519     10281.3732431038         0.8642436349      -354.2895217369      -988.5984840588       178.6178695894       197.8485597877        -1.9022484893      2221.1859751674     -3099.4559614029      -484.8926787111      -426.5393441271      -481.8476761995 
   38000       219.7563792897     10182.7745547004         0.8726120112      -280.5514101728      -936.2584861351       195.9461671905       214.1848559500         6.6728182869      2220.3126173259     -3099.4017442942      -473.9732005942      -579.7591778240     -2014.7949140307 
   39000       217.4942970716     10224.7484765836         0.8690298254      -284.3449143871      -933.3024101023       189.5993981008       226.1093589339         2.3432975449      2225.5988369207     -3100.1604118683      -476.7928897342      -353.1614641114      -461.4922069886 
   40000       215.2989708167     10170.8021764422         0.8736391908      -260.2615660241      -902.6686673251       194.7353448909       225.5724715917         7.9723636767      2252.3977224391     -3099.6484196704      -483.6981502531      -212.4899874996       322.0612656358 
   41000       218.3401933354     10140.5358981649         0.8762467263      -287.1752323190      -938.6567055747       178.5405326231       235.2654567467        -3.2340597008      2226.0096946387     -3099.9879456015      -475.2503842809      -293.7471168349       -44.4378590391 
   42000       225.8194073394     10291.6263307373         0.8633826276      -221.4532887529      -895.2511723942       190.7169709793       243.3275590936        16.0141787142      2228.7530606756     -3099.1022037646      -474.9607380924      -401.2325013453     -1197.7869445753 
   43000       228.3354239812     10460.4320011650         0.8494497534      -200.0147915847      -881.3199426853       195.4073788602       237.6610619483         7.5491640654      2222.8467217464     -3100.1291295030      -444.6551398026      -589.7497197900     -2554.7230070612 
   44000       233.8572729877     10392.8946824566         0.8549698284      -167.0938452794      -864.8750389762       195.9273697424       253.1023513054         1.4324215397      2232.7513197875     -3099.7034360878      -448.3850652634        59.8639783129      1497.3824628322 
   45000       229.3907257495     10457.3659998676         0.8496988040      -191.2440059806      -875.6979568522       211.4169130550       250.9760922064         3.8950475531      2209.1868805760     -3100.6418990356      -450.5309912070       -96.7215562835       619.7788771788 
   46000       247.4572984939     10428.5395632066         0.8520475307      -108.7223917360      -847.0832172347       212.3392316997       259.2438191267         4.7080488697      2248.7485888397     -3099.7577218262      -472.3651839443       -51.0261998897       379.3567068965 
   47000       240.7400909759     10585.2160299685         0.8394359981       -73.7054735270      -792.0235566284       217.1164216835       273.0806584689        10.1624601661      2243.9108649905     -3099.9448704949      -436.3490914424      -202.9628403634      -837.2972970937 
   48000       259.7703019862     10667.3154306020         0.8329754043       -40.5684479365      -815.6687007152       228.7866508809       255.1029502094        10.1670798763      2235.5638518018     -3098.5250136805      -446.7642198031       207.1145646416      1592.0811290707 
   49000       263.2877027766     10609.2699734322         0.8375327808       -37.1515282759      -822.7469693844       210.7684324859       263.4877401589         3.8854089592      2246.6983315393     -3100.1444834421      -447.4423990856       -12.8116540541       157.3102202951 
   50000       262.7932810549     10549.2884807765         0.8422948524        28.5834145583      -755.5367755359       230.9121063515       283.5219527015         3.2152088546      2274.4667532090     -3099.3376107806      -448.3151858720        54.2840493179       167.0493505962 
   51000       263.0164032757     10449.3759651052         0.8503485197        -7.0057457155      -791.7916858528       208.6490106182       301.8448282925         9.1948074058      2227.8118127287     -3099.8026990955      -439.4894458024       316.2198111032      2120.9940375924 
   52000       263.7062068796     10948.8988814680         0.8115529680        61.4463942189      -725.3977756070       238.5233042776       287.7244281207         5.6831147539      2255.1259932248     -3100.5853950741      -411.8692209099       479.7048517222      2619.3793368475 
   53000       278.9615019219     10944.6441859121         0.8118684566       128.7123994621      -703.6503802782       249.2482069716       280.1892161562        14.7883035318      2289.3459554402     -3099.8283605786      -437.3937017994        30.4668627984      -615.5102546435 
   54000       276.8890987179     10757.4093294745         0.8259991892       136.7254644327      -689.4536975691       255.3595601101       288.0260030840        14.9061153494      2295.1446409746     -3099.3693219476      -443.5206951396      -477.5650090031     -3915.5267614189 
   55000       270.5241077779     10684.2747932595         0.8316532058        82.3873859897      -724.7999742211       244.0534790605       285.0170840591         7.0579268323      2282.9173209649     -3098.8255756432      -445.0202094948       107.2664476147       159.6662249260 
   56000       281.7843287790     10646.7300270231         0.8345859584       184.7063022448      -656.0792024713       257.0726975822       313.5208455166        10.8459413068      2292.9129616318     -3097.9994197054      -432.4322288033       477.7473392181      1887.2798863325 
   57000       278.1497939023     11093.0607986554         0.8010062818       221.1461514624      -608.7946613080       263.4649271845       338.0967824430        10.6028467005      2317.0735898855     -3098.1951976114      -439.8376099101       494.2164452844      1687.9017947171 
   58000       280.5008973128     11031.4871041153         0.8054772035       164.0206056276      -672.9354080102       248.3155258061       311.1243740430         8.2760843370      2286.5360651133     -3100.3193022260      -426.8681550836       387.8448204654      1391.2241844821 
   59000       305.8349275577     10850.5444960961         0.8189092618       267.7093270424      -644.8381344883       251.7655052403       327.6206408652         7.6141098837      2312.1627720837     -3097.9219613874      -446.0792011738       295.3313274029       174.5531557909 
   60000       306.5482345915     11112.8665409316         0.7995787001       361.0014541755      -553.6743663631       291.7155223631       339.9638268480         5.6503727863      2321.3887721492     -3098.6486413860      -413.7442191237       401.9298176620       252.5354734060 
Loop time of 68.4115 on 64 procs for 50000 steps with 1002 atoms

Performance: 63.147 ns/day, 0.380 hours/ns, 730.871 timesteps/s
99.3% CPU use with 64 MPI tasks x no OpenMP threads

MPI task timing breakdown:
Section |  min time  |  avg time  |  max time  |%varavg| %total
---------------------------------------------------------------
Pair    | 7.8338     | 11.715     | 16.833     |  69.1 | 17.12
Bond    | 0.23681    | 0.28768    | 0.3349     |   4.4 |  0.42
Kspace  | 8.0498     | 13.226     | 17.121     |  65.4 | 19.33
Neigh   | 23.765     | 23.951     | 24.191     |   2.3 | 35.01
Comm    | 17.076     | 17.332     | 17.534     |   2.7 | 25.33
Output  | 0.03055    | 0.030612   | 0.030997   |   0.0 |  0.04
Modify  | 1.0944     | 1.1624     | 1.2206     |   2.0 |  1.70
Other   |            | 0.7075     |            |       |  1.03

Nlocal:    15.6562 ave 23 max 9 min
Histogram: 4 3 9 5 6 22 4 8 1 2
Nghost:    4770.98 ave 4879 max 4633 min
Histogram: 1 2 7 6 10 11 8 6 8 5
Neighs:    12103.4 ave 21147 max 5335 min
Histogram: 6 5 7 12 14 5 8 2 3 2

Total # of neighbors = 774618
Ave neighs/atom = 773.072
Ave special neighs/atom = 5
Neighbor list builds = 50000
Dangerous builds not checked
unfix anneal

# RUN EQUILIBRATION PHASE AT FINAL TEMP
fix anneal all npt temp ${FINAL_TEMP} ${FINAL_TEMP} 100.0 iso ${pressure} ${pressure} 1000.0 # NPT, nose-hoover 100 fs T relaxation
fix anneal all npt temp 298.0 ${FINAL_TEMP} 100.0 iso ${pressure} ${pressure} 1000.0 
fix anneal all npt temp 298.0 298.0 100.0 iso ${pressure} ${pressure} 1000.0 
fix anneal all npt temp 298.0 298.0 100.0 iso 1.0 ${pressure} 1000.0 
fix anneal all npt temp 298.0 298.0 100.0 iso 1.0 1.0 1000.0 
run ${nSteps_ramp}
run 50000
PPPM initialization ...
WARNING: Using 12-bit tables for long-range coulomb (../kspace.cpp:321)
  G vector (1/distance) = 0.186623
  grid = 8 8 8
  stencil order = 5
  estimated absolute RMS force accuracy = 0.00725571
  estimated relative force accuracy = 2.18503e-05
  using double precision FFTs
  3d grid and FFT values/proc = 343 8
Per MPI rank memory allocation (min/avg/max) = 10.43 | 10.54 | 10.55 Mbytes
Step Temp Volume Density TotEng PotEng E_bond E_angle E_dihed E_coul E_long E_vdwl Enthalpy Press 
   60000       306.5482345915     11112.8665409316         0.7995787001       361.0028720494      -553.6729484892       291.7155223631       339.9638268480         5.6503727863      2327.1515076812     -3104.4099590441      -413.7442191237       401.9379095547       252.5766533200 
   61000       303.3087576556     11033.5576805906         0.8053260463       330.9988772503      -574.0110216156       278.4186061756       343.7665389712        10.4852566291      2324.2021476458     -3106.2249295456      -424.6586414917       646.6622028603      1961.7003451920 
   62000       290.4189277449     11330.5261395109         0.7842187798       309.5765030896      -556.9728391012       272.1337509547       349.7691985545        11.3519931150      2333.4299496747     -3104.6219271025      -419.0358042975       393.4316925672       507.4625274422 
   63000       299.6718456040     10972.3354834431         0.8098195135       269.6415334757      -624.5165804517       267.1453092743       322.4655111035         6.3076355038      2319.3795656185     -3104.0189197695      -435.7956821823       105.8364474223     -1023.6521783872 
   64000       284.6957186822     10884.0643649094         0.8163872507       247.9389217567      -601.5335615426       263.7683812864       345.1617252596        16.3771529693      2292.7343801964     -3104.4456699420      -415.1295313123       245.8467338474       -13.1805549849 
   65000       307.8656499626     11059.8815148094         0.8034092745       344.1665463882      -574.4401660935       275.6825483344       344.3279568335         9.3750619883      2342.7189489727     -3103.8333188360      -442.7113633864       498.3821568902       956.0970401193 
   66000       293.9929606987     11762.9579265296         0.7553892005       300.6404930921      -576.5730159598       274.4144932402       319.1512928683         9.5323542402      2327.4229034921     -3104.9551200812      -402.1389397194       161.9528477164      -808.4354362983 
   67000       298.1609012040     11103.1492643863         0.8002784770       237.0287790446      -652.6209927921       248.0140542678       304.3407090498         8.4462421547      2321.2281254431     -3105.9856786298      -428.6644450776       229.9464332957       -43.7376109174 
   68000       300.4791998823     11440.8239259916         0.7766583457       321.9221554799      -574.6449347640       276.9069167430       313.1758315329        10.8825814314      2347.9785396805     -3103.4003576343      -420.1884465175       474.2921509578       913.2007581851 
   69000       302.8516276693     11220.7917286679         0.7918880947       308.4155966256      -595.2303219653       275.7227148462       320.7680945868         9.4115242336      2327.0816872164     -3104.1445818229      -424.0697610254       374.6234630318       404.5853955566 
   70000       288.4376613047     11137.2618881372         0.7978272822       264.3606607012      -596.2769967940       283.5439474688       309.1200546778        10.3560243812      2323.7119883849     -3104.5095493074      -418.4994623992       379.4633940184       708.6492232111 
   71000       301.9732976949     11048.5967233811         0.8042298589       344.1156573152      -556.9095083261       293.8981640898       320.5230747404        16.9463783714      2361.2696798592     -3105.1400263598      -444.4067790270       409.4303936724       405.3481234118 
   72000       311.3981832834     11514.7396443973         0.7716728001       378.0215451898      -551.1255079274       261.7281367592       331.1578927781        14.6625279700      2325.1333067614     -3104.1136321483      -379.6937400477       434.1064335487       333.9764527017 
   73000       291.9539820787     11284.9649215832         0.7873849361       270.2244357801      -600.9051875016       277.5936955977       316.0316645842         9.6707009120      2326.2120526486     -3104.6794749270      -425.7338263171      -223.2021430192     -2998.1022238208 
   74000       294.7025915495     11228.9401618934         0.7913134504       284.3763620216      -594.9545370767       272.6264655303       317.8994224973        11.4274029351      2318.0170109185     -3104.0634219279      -410.8614170299       285.5892594938         7.4064387225 
   75000       296.3320244975     11294.9957921202         0.7866856745       291.1381123466      -593.0546738892       269.6649399705       303.4794548414        19.5413022320      2353.2245525651     -3104.7600198670      -434.2049036312       329.7904471803       234.6463322673 
   76000       286.0667280126     11236.0456036893         0.7908130402       257.2139541298      -596.3493342785       268.0489506840       320.1869004374         9.1963779119      2335.0840353426     -3106.2323900307      -422.6332086237       342.2466740908       518.9155541471 
   77000       302.2817041367     11413.5023975795         0.7785175027       294.6590067393      -607.2863792242       276.7064989830       301.6441603028        12.4287734668      2328.6899728192     -3104.0994078755      -422.6563769206       151.0006723339      -863.0500917761 
   78000       293.7658574925     10920.5941603175         0.8136564049       254.0725532089      -622.4633273721       248.6653288107       326.3621913539        17.4149046791      2327.3522166160     -3104.6449357029      -437.6130331288       300.6787643277       292.6318823554 
   79000       281.1983869241     11262.3882010021         0.7889633375       276.0938524337      -562.9433243311       270.9220208594       322.1606719420        11.1954055454      2351.0833254784     -3103.9102814418      -414.3944667145       612.0401522958      2045.3304304152 
   80000       290.6596653474     10842.6101314437         0.8195085202       209.6430145918      -657.6246382571       232.6262930999       322.2131244506        16.4675616962      2305.1604460908     -3105.4296722925      -428.6623913021       217.2819939208        48.3087281068 
   81000       285.3511615920     11445.6762700941         0.7763290848       283.3535513178      -568.0746365450       263.8679979983       340.6910218064        11.5158132864      2326.4296409980     -3103.5970462489      -406.9820643852       379.6536488708       576.9117435909 
   82000       300.4636868848     11364.9200008885         0.7818454844       324.8922954970      -571.6285072068       288.8907111833       317.1358797361         6.8693310056      2324.3413501054     -3105.3375448930      -403.5282343442       146.1976231943     -1078.1255343446 
   83000       303.6671997943     11059.7505766299         0.8034187862       322.7973851872      -583.2820300560       286.9330826515       324.2475282976         8.5591853196      2328.3640081670     -3104.1830868242      -427.2027476675       275.9694091837      -290.3248197114 
   84000       291.5572814182     11149.4724233236         0.7969535280       252.7041798642      -617.2417716124       271.9607186673       321.2460134112        11.5329852691      2333.1496661908     -3105.8324024185      -449.2987527322       422.7105213948      1045.5261860028 
   85000       296.3997203211     11010.5541446994         0.8070085544       334.1648528792      -550.2299235364       277.2654350768       326.3954192858        17.2118575276      2346.7081275223     -3105.1576309844      -412.6531319645       558.5239527490      1397.2001469432 
   86000       279.9061969531     11300.7852943335         0.7862826478       238.7061211577      -596.4754309822       263.2977539336       319.5444764612        11.7706279057      2320.8939625266     -3104.7666916695      -407.2155601398       277.5120727768       235.4582027517 
   87000       292.9815462434     11089.3808363878         0.8012720922       305.5405056821      -568.6551541623       281.7020777939       330.7655367462        14.3632945333      2336.0425554747     -3104.5956781167      -426.9329405937       487.9036082585      1127.5966695198 
   88000       310.2324938932     11461.1496910153         0.7752809817       313.4228586101      -612.2460211588       273.8904174821       319.9549377079         2.4904259405      2317.7646723569     -3105.1887703502      -421.1577042960       149.0689919648      -983.2769345838 
   89000       302.9067295015     11185.6714706468         0.7943744287       281.7573544079      -622.0529765262       278.6486433359       301.6164794671        22.3843382004      2299.6425648276     -3105.7648716206      -418.5801307367       150.5188059840      -804.4952219404 
   90000       300.7319007228     11204.7895220632         0.7930190358       291.0960834517      -606.2250132505       290.8860630710       311.5198811135        12.1805129403      2294.8955071079     -3104.4391919716      -411.2677855116       462.0330811684      1046.0597207306 
   91000       299.1311129924     11126.5513397878         0.7985952801       280.8309012795      -611.7137796239       264.8341818151       323.3223984110         7.1708140469      2334.9282746120     -3104.8272568070      -437.1421917020      -108.8895409249     -2401.6887352589 
   92000       304.9124145580     11149.8549606904         0.7969261856       324.5460266404      -585.2488490334       266.3893877871       323.9789790559        14.1053300679      2352.7629218041     -3105.3673276057      -437.1181401427        17.9868704990     -1885.2510202566 
   93000       298.2558240603     11809.2065824394         0.7524308531       364.0999528169      -525.8330489709       267.5142570505       346.1814587248        11.2293417770      2367.3329116705     -3103.7936064081      -414.2974117858       504.1433435034       813.1412778297 
   94000       300.5319865421     11234.2793106306         0.7909373746       292.3482935817      -604.3763010154       246.5402316693       329.8717209100        11.5873784882      2343.3107535687     -3105.7690920650      -429.9172935867       -66.6370511356     -2191.0667711637 
   95000       296.0993758805     11118.2040593721         0.7991948462       252.2645605956      -631.2340508232       260.7257602776       300.1268791994         3.4538085634      2313.0431874187     -3104.0341890138      -404.5494972684       278.5843295083       162.3198160305 
   96000       293.6693045093     11317.0682219179         0.7851513492       300.8080686166      -575.4397180555       269.2056967981       330.0182071030        13.7711052496      2351.0765450146     -3105.4012207317      -434.1100514891       506.3614066293      1245.4167730643 
   97000       302.9392707074     11631.1112067988         0.7639520615       307.9130675618      -595.9943595250       263.8829793141       320.8842344519        14.1302592954      2311.8482314591     -3105.3509627818      -401.3891012637       115.5172802680     -1134.2230293264 
   98000       295.6189316716     11267.6735038765         0.7885932602       284.3731836394      -597.6918827400       256.3434175673       313.6639821778        24.1216365079      2357.1656352160     -3105.5128830950      -443.4736711140       672.4885001911      2361.8408967933 
   99000       310.1140651541     11007.7061588945         0.8072173489       319.5128688544      -605.8026443254       253.7473187325       320.5485388843        11.3579153348      2329.8701276795     -3105.1216310533      -416.2049139032       517.2868431518      1231.9594791208 
  100000       289.8120883957     11556.5828075033         0.7688787881       286.7807973833      -577.9578631038       274.8966071182       324.5181753442         2.7200110977      2330.0139484143     -3104.4423766821      -405.6642283959       292.1665157553        31.9549626871 
  101000       292.5739134593     11481.1587261691         0.7739298441       289.9432246725      -583.0361441965       279.2085725453       311.5947867429        10.2123996459      2309.1789938680     -3105.1744233147      -388.0564736838       246.3363127853      -260.4316256284 
  102000       296.3972756572     11281.8089298831         0.7876052004       249.1184891167      -635.2689929330       264.2031441299       299.4037460863        13.5960337136      2313.7923282326     -3104.2317124621      -422.0325326333       363.3664328327       694.3744984779 
  103000       299.2641173087     11705.3268013347         0.7591083559       351.8076358885      -541.1339020782       277.8391812597       354.0745310574        13.5037222332      2331.6305001791     -3105.3102147096      -412.8716220981      -152.5646846797     -2954.5531857589 
  104000       292.4329913120     11027.1543425243         0.8057936896       279.8279668979      -592.7309197558       266.4108703731       342.6205804185        16.8463223741      2322.5256267058     -3105.1373333788      -435.9969862485       232.3445324365      -295.2587529509 
  105000       299.3351977037     11262.4912602490         0.7889561180       295.4304400720      -597.7231869274       274.8285905198       318.5703962422         8.9007433112      2339.0281193279     -3105.5384457625      -433.5125905660       170.0173587307      -763.5412102997 
  106000       296.0721554903     11411.5481015636         0.7786508285       301.8565511925      -581.5608402749       263.6284852585       317.1619032653        16.8259514033      2316.4354877333     -3104.6587587051      -390.9539092302        41.9721421845     -1561.5639394666 
  107000       302.0391925050     11026.4464198412         0.8058454234       265.5286534972      -635.6931284762       258.8730381623       300.4975672829        14.0590448097      2305.9224834066     -3103.7995870927      -411.2456750449       577.1307304268      1937.7104565009 
  108000       285.8907257821     11323.0628392953         0.7847356771       229.7392989700      -623.2988355917       258.8839164627       308.8594425984        11.4717565520      2321.3275015133     -3103.5784413247      -420.2630113935        26.0467582649     -1233.4891064105 
  109000       291.9352294827     11451.3097692527         0.7759471678       315.1804237471      -555.8932457098       283.4508340790       339.8385831662        15.3483782137      2326.0213191113     -3104.7692069045      -415.7831533755       187.9154680961      -762.0400172449 
  110000       295.2655093522     11347.3739464786         0.7830544252       322.9809929140      -558.0295351791       266.3695303570       342.6800995660         7.6993607517      2342.2290579828     -3103.8128571046      -413.1947267320       264.3561998739      -354.2501690192 
Loop time of 62.9993 on 64 procs for 50000 steps with 1002 atoms

Performance: 68.572 ns/day, 0.350 hours/ns, 793.659 timesteps/s
99.3% CPU use with 64 MPI tasks x no OpenMP threads

MPI task timing breakdown:
Section |  min time  |  avg time  |  max time  |%varavg| %total
---------------------------------------------------------------
Pair    | 7.1473     | 10.72      | 14.367     |  67.8 | 17.02
Bond    | 0.26423    | 0.28779    | 0.30987    |   2.1 |  0.46
Kspace  | 8.8325     | 12.486     | 16.053     |  62.9 | 19.82
Neigh   | 21.99      | 22.111     | 22.277     |   1.5 | 35.10
Comm    | 15.543     | 15.71      | 15.829     |   1.7 | 24.94
Output  | 0.028768   | 0.028816   | 0.029198   |   0.0 |  0.05
Modify  | 1.0881     | 1.1294     | 1.1609     |   1.3 |  1.79
Other   |            | 0.5262     |            |       |  0.84

Nlocal:    15.6562 ave 22 max 6 min
Histogram: 1 0 1 9 4 14 18 6 8 3
Nghost:    4702 ave 4816 max 4588 min
Histogram: 4 6 6 5 11 7 9 8 3 5
Neighs:    11854.8 ave 19694 max 2463 min
Histogram: 1 2 3 10 9 14 11 7 2 5

Total # of neighbors = 758706
Ave neighs/atom = 757.192
Ave special neighs/atom = 5
Neighbor list builds = 50000
Dangerous builds not checked
unfix anneal
undump anneal

# RETURN TO LESS FREQUENT NEIGHBOR BUILDS
neigh_modify every 1 delay 10 check yes one 10000 # More relaxed rebuild criteria can be used

#===========================================================
# RUN EQUILIBRIUM SIM
#===========================================================

# UPDATE RUN PARAMETERS AND CREATE FIX
fix equil all npt temp ${FINAL_TEMP} ${FINAL_TEMP} 100.0 iso ${pressure} ${pressure} 1000.0 # NPT, nose-hoover 100 fs T relaxation
fix equil all npt temp 298.0 ${FINAL_TEMP} 100.0 iso ${pressure} ${pressure} 1000.0 
fix equil all npt temp 298.0 298.0 100.0 iso ${pressure} ${pressure} 1000.0 
fix equil all npt temp 298.0 298.0 100.0 iso 1.0 ${pressure} 1000.0 
fix equil all npt temp 298.0 298.0 100.0 iso 1.0 1.0 1000.0 

# CREATE COORDINATE DUMPS FOR EQUILIBRIUM
dump equil all custom ${coords_freq} equil.lammpstrj id type x y z mol
dump equil all custom 1000 equil.lammpstrj id type x y z mol
dump_modify equil sort id format float %20.10g

# RUN EQUIL
run		${nSteps_equil}
run		100000
PPPM initialization ...
WARNING: Using 12-bit tables for long-range coulomb (../kspace.cpp:321)
  G vector (1/distance) = 0.186196
  grid = 8 8 8
  stencil order = 5
  estimated absolute RMS force accuracy = 0.00740775
  estimated relative force accuracy = 2.23082e-05
  using double precision FFTs
  3d grid and FFT values/proc = 343 8
Per MPI rank memory allocation (min/avg/max) = 11.04 | 11.04 | 11.05 Mbytes
Step Temp Volume Density TotEng PotEng E_bond E_angle E_dihed E_coul E_long E_vdwl Enthalpy Press 
  110000       295.2655093522     11347.3739464786         0.7830544252       322.9826699069      -558.0278581861       266.3695303570       342.6800995660         7.6993607517      2335.1643266178     -3096.7464487466      -413.1947267320       264.3650632688      -354.2067439768 
  111000       294.7468426167     11109.6644941018         0.7998091561       292.8935056733      -586.5694293550       251.0429660415       333.4999168699         8.6656919050      2361.5302162067     -3098.6266984326      -442.6815219455       336.4243244975       268.6705122383 
  112000       293.5678237561     11439.7503994020         0.7767312287       267.0011350490      -608.9438542792       262.6993331592       321.3436230935        13.9555647326      2308.7263483986     -3098.0438972523      -417.6248264109       178.2330740854      -532.0645145556 
  113000       303.5241410950     10676.5391942019         0.8322557733       290.6814271598      -614.9711308441       269.3598045937       318.4479973935         9.3450669296      2332.8047596280     -3097.5825130286      -447.3462463601       197.4572648049      -598.7177058132 
  114000       305.4508336381     11347.9242097895         0.7830164548       344.3658672724      -567.0355383316       272.9029768940       328.4735530437         6.8481411703      2358.1292716603     -3097.2972774104      -436.0922036894       391.2408480659       283.2362180733 
  115000       312.2046447457     11298.4275253232         0.7864467302       324.8897494058      -606.6636160517       269.4445685690       333.3086055509         7.7976328446      2282.7717015249     -3097.4095064394      -402.5766181018       665.2411202898      2065.5400047738 
  116000       293.9170070040     10874.7292047488         0.8170880595       263.8708116313      -613.1160674806       277.4087520473       346.1361115429         8.9215435549      2284.4876006337     -3097.4861835927      -432.5838916666       377.9177049566       719.0997186003 
  117000       285.9075970988     11164.6873548791         0.7958674615       201.6028987281      -651.4855763143       266.0833609766       308.0400064369         8.7218828648      2267.2880497927     -3098.9627589543      -402.6561174309       -68.1823792438     -1656.8980673502 
  118000       290.6954590910     11097.4430986750         0.8006899702       283.1486957031      -584.2257581908       276.4987966795       341.0977785881         6.9294566502      2304.1332596810     -3098.9504663514      -413.9345834382       187.0935963054      -593.5012110269 
  119000       294.0617702923     11187.9864831609         0.7942100571       304.9745770111      -572.4442454773       274.7802022068       359.8673668908         2.5025430156      2316.2113036004     -3098.0033608827      -427.8023003082       118.5454951609     -1142.5779492683 
  120000       283.4850706698     11418.6246950340         0.7781682664       239.1000469589      -606.7601158663       271.6266811910       321.4081198896         7.4314382559      2288.2679103978     -3097.9414375580      -397.5528280425       538.3098614464      1796.7437655408 
  121000       298.1328018659     10970.9165956014         0.8099242489       308.3141268060      -581.2518024827       291.5508843145       338.9414284636         8.2221466210      2299.4844515652     -3098.3777354077      -421.0729780392       380.0224466123       448.1782163400 
  122000       296.0620355499     11405.2700943727         0.7790794352       262.2490891740      -621.1381065077       266.6633344825       307.3378015523         7.1820321864      2317.9950745424     -3096.8702594434      -423.4460898280       508.9684239207      1483.2751520527 
  123000       307.0782342199     10979.1496972780         0.8093168987       271.5224985745      -644.7347300112       255.2356454412       328.8831843110         4.0627425303      2306.3174274072     -3097.3573136633      -441.8764160375       358.4360217063       542.8036494201 
  124000       299.5579589821     10999.9383973722         0.8077873769       247.2159648331      -646.6023352331       266.3367779913       300.9091138125        13.1625207740      2300.3883148478     -3099.3103817691      -428.0886808896       419.7638869629      1075.5821627885 
  125000       291.9348838739     11250.2843993681         0.7898121566       268.4589521169      -602.6136861159       262.2195693121       304.9733944234        17.5733114902      2341.4440968326     -3097.0435894254      -431.7804687488       536.1358449190      1631.4414480573 
  126000       296.4262041596     11377.0312547936         0.7810131821       323.6833666831      -560.7904319675       298.9656671891       317.2364813438         7.2703847324      2334.7073142036     -3097.6727196708      -421.2975597657       547.2174717173      1347.2213389744 
  127000       293.5863764138     11432.7998723386         0.7772034395       258.8097073085      -617.1906392703       265.9439711768       330.2325120013         3.2674903065      2284.4869910619     -3095.4007470776      -405.7208567392       255.0643471442       -22.4628623733 
  128000       310.1894370374     11204.7219411158         0.7930238189       327.5721020903      -597.9683050259       282.2298215095       321.0694081360        12.8651946480      2307.4861278621     -3097.3007281853      -424.3181289962       317.9990246026       -58.5834038053 
  129000       310.6965573747     11177.7447761523         0.7949377591       355.1889473264      -571.8646008172       298.5729529967       338.5246903348        13.4804539568      2310.5846840623     -3098.8296616921      -434.1977204756       272.9450868631      -504.5142171682 
  130000       292.5647826943     10913.4280349225         0.8141906791       286.0434367505      -586.9086878254       263.0701163576       332.6325058184        16.3777916188      2335.3179724497     -3097.1155132774      -437.1915607924       354.2540292265       428.5630690301 
  131000       282.1941600408     11186.1865018991         0.7943378543       269.9699486115      -572.0384068776       279.7228588440       326.5401817542        14.6998371839      2327.7892886404     -3097.6937584534      -423.0968148466      -373.9067100694     -3946.7965185234 
  132000       295.3709548697     11095.9268497356         0.8007993838       262.9589688623      -618.3661866022       284.5357658208       316.7008749786        13.7966357194      2296.4422930687     -3097.0209324200      -432.8208237697       -78.6445669112     -2110.9739928526 
  133000       290.4839967755     11065.2163862837         0.8030219269       248.4907626072      -618.2527319624       271.1846574617       324.0314197844        11.3135416520      2293.4316208322     -3098.2830641758      -419.9309075169        91.2647867545      -974.2905682725 
  134000       293.9444377260     11146.1947903796         0.7971878790       298.4160356255      -578.6526910240       265.3018400269       344.8725486378         6.2616239182      2313.1257836461     -3096.1474015746      -412.0670856784      1184.3079321702      5449.7704687380 
  135000       293.0944441675     11058.8158835717         0.8034866913       297.9075789305      -576.6249447079       310.2765375043       321.1142695447        14.6371630821      2313.5734701812     -3098.6990709490      -437.5273140713       -73.2793395913     -2301.4849817313 
  136000       290.0756253795     10710.0042679950         0.8296552607       240.7308121006      -624.7941876302       262.5085130162       317.5721346013         8.7389360276      2330.0675823064     -3098.3410824491      -445.3402711326       134.7563890220      -678.4776214094 
  137000       290.6066576382     10937.6755966067         0.8123857126       252.3588005328      -614.7506883978       279.5064423460       325.6974901930         9.1754183928      2281.0782720825     -3097.5664925476      -412.6418188646       622.9077218770      2322.9754797638 
  138000       288.4910860214     10899.0259258687         0.8152665609       318.0018747106      -542.7951909661       303.8038509612       328.2789450367         6.2927651224      2368.0492027191     -3098.7456921299      -450.4742626756       250.1991173580      -426.5635879683 
  139000       304.1057211153     10662.8545026832         0.8333238891       281.5661445470      -625.8217266058       273.7949103002       305.3278274136         8.4016279331      2330.3411882872     -3098.3044669124      -445.3828136274       191.1828673870      -581.2175394317 
  140000       297.3567537178     11319.3925135829         0.7849901285       271.4298457799      -615.8205181374       274.8114329766       330.8393619876        14.4674145692      2264.2658325287     -3097.1737838022      -403.0307763973       130.2135370661      -855.4326965018 
  141000       280.3673902748     10916.5088873735         0.8139608986       224.5300995879      -612.0275569702       269.3056239271       296.5631140077         4.1956198521      2344.9720582346     -3096.9885920084      -430.0753809833       313.2966508096       557.5575291589 
  142000       308.2772040841     11235.0315939689         0.7908844145       332.1767089220      -587.6579949860       300.1830754217       297.6072632295         9.6296143067      2335.4790412821     -3099.2122482528      -431.3447409732       -18.6470601838     -2141.1092252577 
  143000       293.7540214534     10967.2264916967         0.8101967613       219.6279464596      -656.8726178559       261.4899613463       317.0617375541        11.2793890809      2274.9811870699     -3096.0715337699      -425.6133591372       410.2025473662      1191.4952548232 
  144000       297.8608169254     10894.4438871920         0.8156094497       265.1424579109      -623.6119251981       282.5749511044       311.0444490685         7.3990560294      2322.8273280028     -3098.1509127577      -449.3067966455       135.2506783024      -817.5243767835 
  145000       304.9771896513     10887.6647591228         0.8161172832       310.7928664557      -599.1952845495       268.1572759822       332.7454276816         2.3058456560      2337.9926685383     -3096.6000277445      -443.7964746631       721.6080014194      2587.2345710192 
  146000       276.6187867866     10949.7625240005         0.8114889582       201.2698819893      -624.1027257426       262.9180320872       317.7682745378        10.1098031984      2320.5135720977     -3097.6942775398      -437.7181301239       577.0751607984      2353.3270479694 
  147000       297.4902966643     11071.1397838334         0.8025922856       249.1057497833      -638.5430783573       274.6307604100       312.4878070735         9.4567082781      2306.3609009030     -3097.2591048907      -444.2201501313       -72.1914845550     -1989.9344180112 
  148000       305.3955315849     11240.0266342452         0.7905329474       315.5841574303      -595.6522384127       273.9915056254       343.7584897975         8.1498270279      2293.1954823360     -3098.1560206645      -416.5915225351       303.0440528543       -76.4993823140 
  149000       289.2241752892     11180.8301359764         0.7947183953       265.1140268898      -597.8704238436       267.9454753618       337.8551996487        11.6834751450      2300.0783311412     -3097.1809911803      -418.2519139600        93.2613025173     -1053.9171761262 
  150000       306.6244304116     10894.9730091673         0.8155698391       284.9938086416      -629.9093642885       256.9859019259       320.4165792444         8.4075199760      2325.7303300397     -3096.4737975233      -444.9758979512       744.9277077732      2894.6320878157 
  151000       295.0053503311     10844.9579620242         0.8193311043       209.5707036745      -670.6635643093       260.5809876033       303.1931502199         7.6178745448      2297.3165698490     -3097.4299997964      -441.9421467299        42.9810355379     -1053.2811228497 
  152000       289.7592688558     11241.8108021937         0.7904074833       263.6888034422      -600.8922545845       265.7955526561       319.6831757494        14.6101482763      2329.4130561701     -3099.1580392995      -431.2361481368      -176.6455178372     -2685.7796320805 
  153000       274.5614504441     10987.9788148780         0.8086665922       222.7132073228      -596.5207390343       276.3309627543       335.1973546724         6.3031787994      2333.0627841412     -3098.5069881445      -448.9080312572      -261.5524030410     -3021.9684530787 
  154000       311.9003020962     11064.1964621771         0.8030959513       340.6588258485      -589.9864447930       273.0605134318       350.9837412203        13.6521001453      2299.8227556816     -3096.0902998106      -431.4152554614       824.0472798263      2995.7150735590 
  155000       289.0393514921     11333.2431397469         0.7840307734       241.9346513225      -620.4983238544       260.4496699487       314.9871951314        14.1451194277      2311.9177948448     -3097.4691401383      -424.5289630689        67.5913175966     -1054.8124585344 
  156000       306.6724029586     11156.5172245124         0.7964502904       327.8262506763      -587.2200623010       263.2005207000       327.9386243390         9.5071366846      2343.4155971281     -3097.6215005205      -433.6604406323       562.2235725165      1440.6156074868 
  157000       285.1360859246     11497.3338230160         0.7728410360       232.4932573190      -618.2931897332       248.6731757830       314.1882283844        12.5693737893      2311.7979092476     -3097.3419902111      -408.1798867264       711.4341707441      2856.3334611079 
  158000       298.3141245396     10851.7187223010         0.8188206505       352.2948876468      -537.8120705784       286.8817812199       350.2784220441        12.0331095031      2339.0898750304     -3097.8712530883      -428.2240052876       368.2929900465       101.0867082559 
  159000       296.5925144361     11319.2043821431         0.7850031755       298.6153929773      -586.3546407564       282.5667398710       317.4626176377        12.4286326693      2327.5072634756     -3096.8456597461      -429.4742346638       317.4507327164       114.0989550407 
  160000       298.0768487460     11164.7101156510         0.7958658390       280.1554685637      -609.2435083171       273.7161374198       308.5443453138         8.9535879411      2303.9482549271     -3098.4072149922      -405.9986189268       293.2657107343        80.5169607266 
  161000       300.8187445934     11037.1568455486         0.8050634333       304.0970337332      -593.4831869164       274.6330356364       337.9101233915        20.3814987427      2297.0416437504     -3098.3787933781      -425.0706950593       790.4309092699      3021.3526429870 
  162000       289.2359130142     11156.8519604018         0.7964263948       260.2652974643      -602.7541761856       283.8936018292       301.1235016255         4.7283350646      2316.4476289466     -3098.4913433918      -410.4559002596       128.3081764760      -810.9895753970 
  163000       298.0328810733     11159.7165596057         0.7962219592       280.0628690084      -609.2049175324       264.8520178465       313.1124899532         2.2565001115      2337.2134406713     -3096.1853679473      -430.4539981676       224.3877794817      -342.0832978548 
  164000       304.1695232509     11436.3768166933         0.7769603543       286.2886745530      -621.2895688287       270.4667655554       290.9612710358        13.8711103757      2320.9876649047     -3096.6014018516      -420.9749788487       267.5462380668      -112.3729292673 
  165000       296.6397171104     11675.1846259064         0.7610681688       265.4683456281      -619.6425310136       277.2062416003       283.8064386219        11.3288521592      2302.1387817503     -3096.7043156221      -397.4185295231       270.0307668421        26.7951215531 
  166000       297.6625270534     11452.1749298383         0.7758885485       302.9146798914      -585.2480477100       261.7394011790       317.7899733040         9.3914929189      2337.0859800912     -3097.0874015686      -414.1674936346       537.4050754159      1403.9808902979 
  167000       311.0956438920     11165.9872580491         0.7957748095       319.8338396510      -608.4104991953       269.0857141160       331.2924813229        13.0775641443      2313.4132104980     -3098.9658886681      -436.3135806084        33.8528229472     -1756.1604345672 
  168000       300.6123587738     11129.4016350091         0.7983907559       317.7841787389      -579.1802297885       264.4988926062       323.1444163689         9.9309438381      2345.2187691948     -3096.8845688300      -425.0886829664        16.6618820089     -1855.2191110604 
  169000       300.8232871927     11030.4042740310         0.8055562754       286.5255508974      -611.0682239183       259.4939990806       307.4708986812        11.7895565806      2352.2795069055     -3097.6552515570      -444.4469336093       413.7434347293       790.8258335138 
  170000       309.9417407088     11125.2463979491         0.7986889518       302.1286851178      -622.6726479569       252.5276603364       314.6917415035         7.1121283161      2339.9828833178     -3095.2884713204      -441.6985901103       250.2266907019      -319.8884200083 
  171000       332.2942562245     11138.8269650289         0.7977151824       349.2957214568      -642.2008431131       258.6921834104       291.9435538082         6.5303356790      2312.6865128553     -3098.5125106271      -413.5409182388       688.0097702091      2085.0566701591 
  172000       309.4647433081     11128.8236086499         0.7984322239       344.5405278460      -578.8375447444       273.8696448122       326.9358679153        10.0473238330      2330.1482140112     -3097.2774465597      -422.5611487564       174.9769744370     -1044.7379262972 
  173000       297.7717536340     11078.1176668070         0.8020867489       312.3278064289      -576.1608304454       272.9291710687       321.3094732522        13.2928923522      2345.0874635614     -3097.4290013219      -431.3508293579       426.5207176100       706.8012057128 
  174000       311.6878560233     11027.4451977267         0.8057724363       303.6057943185      -626.4055816724       236.6233412762       317.4619181080         9.4379913677      2336.6884547905     -3097.9482461404      -428.6690410744       713.5198288311      2548.8365735501 
  175000       290.8607244850     11383.0261109002         0.7806018625       307.1088575527      -560.7587137130       267.4089494087       347.8215071168         8.2426988746      2342.2523074292     -3097.2581730441      -429.2260034982       316.1855993711        54.6759529307 
  176000       296.6765455103     10880.0022289408         0.8166920554       317.6608453931      -567.5599194916       297.1397296003       336.2978435387        13.3931724766      2324.6598059132     -3097.5269095529      -441.5235614675      -206.0932438521     -3300.8254036733 
  177000       293.9675423882     11141.6689272225         0.7975117051       277.1973756460      -599.9402904833       254.7786667803       323.1601408020         6.8464872131      2348.8674584501     -3097.8469614893      -435.7460822396       279.8520421048        16.3374331637 
  178000       291.5527920910     10999.8843207640         0.8077913480       293.8696675189      -576.0628887444       282.3898439667       332.4183190323         6.2471352657      2332.2038390227     -3097.3781057014      -431.9439203304       435.0716597646       880.1907839025 
  179000       304.2323105024     11089.3803432872         0.8012721278       310.1338554427      -597.6317319664       271.6779283635       305.6683285472         7.6605961718      2333.8950143229     -3098.1338211511      -418.3997782207       365.2429677561       340.7534385522 
  180000       302.2040449599     11276.0383562455         0.7880082617       298.9918526272      -602.7218145944       255.2428204660       304.6087127449        16.2212751901      2352.6056785203     -3097.2259432126      -434.1743583031       252.7853400879      -280.9769909787 
  181000       288.8220299786     11107.1692689028         0.7999888332       266.2866593989      -595.4978738324       252.6457326463       314.7819800471        13.1843674530      2321.3889230070     -3097.2511300725      -400.2477469134       456.9509943654      1177.0371846486 
  182000       303.5552212856     11034.8068924964         0.8052348782       329.2347995213      -576.5104952711       265.1953840065       335.4119478725        17.8818346039      2313.7331263160     -3096.7056341466      -412.0271539234       419.9331244818       563.5839798818 
  183000       297.8315676380     11520.5969810262         0.7712804639       299.5914623596      -589.0756469931       260.1373261351       310.5615993366         9.2859953062      2350.5943011390     -3096.3636265211      -423.2912423888       268.0278333206      -187.8607522182 
  184000       291.4594536061     11331.5878727511         0.7841453010       256.2151902063      -613.4388635388       252.4725358860       317.8531518393         4.3584456150      2317.9879889025     -3098.1100975198      -408.0008882618       209.2171232358      -284.3893544682 
  185000       299.9469972562     11102.2154737701         0.8003457873       290.1032213330      -604.8758875795       275.1983549021       335.1959109458         2.7179439823      2301.8076811866     -3097.2311992758      -422.5645793205       249.2677021661      -252.2043308914 
  186000       301.5667392717     11238.5092872730         0.7906396797       292.6649335572      -607.1471467768       282.1682385955       312.1833152699        12.2181402460      2286.0313963801     -3097.5466945998      -402.2015426685       122.5904586538     -1037.6587212762 
  187000       303.2303594666     11206.8111097052         0.7928759838       272.3775862721      -632.3983887941       263.5881701374       322.4495368760        13.4080423085      2303.1429772052     -3098.3284051057      -436.6587102156       425.1170562895       934.5301945857 
  188000       283.5925401270     11457.0160894997         0.7755606970       263.1746835844      -583.0061456248       297.9146479993       316.2718426065        14.3157185012      2303.8111281617     -3096.3534201781      -418.9660627154        -4.5251401715     -1602.1407727218 
  189000       308.7091906897     11404.9001205852         0.7791047085       301.5305878395      -619.5930737539       282.2863894261       311.0444327200        12.4507947948      2310.9497148416     -3097.3804633773      -438.9439421591      -116.2151496927     -2511.5663261168 
  190000       288.5750606977     11069.5761212218         0.8027056579       215.6138994133      -645.4337291348       251.8900168281       313.1432751253         7.2970350345      2301.2635191282     -3096.8847535181      -422.1428217328       290.7573941947       465.4622975888 
  191000       296.1597752761     11428.8525049633         0.7774718748       319.5145901594      -564.1642404240       298.2754405723       330.4654416322        14.4714299379      2304.8542919347     -3097.4217907590      -414.8090537422       -54.8057948374     -2245.7683735330 
  192000       307.9306038241     10986.9180778410         0.8087446653       283.9215053237      -634.8790158965       270.7386412608       306.5567982091         9.3779421163      2326.4717535635     -3097.9909332794      -450.0332177668       376.4087487662       577.2049673659 
  193000       314.1757886814     11121.1767143459         0.7989812240       341.3257348597      -596.1091118568       262.0942282871       315.1402107455        13.2828881235      2358.3354539763     -3096.8653494809      -448.0965435083       223.6185225893      -725.7322841601 
  194000       292.2848609836     11356.5944109808         0.7824186602       307.0220051190      -565.0948916148       292.9823496799       332.1890496510        11.4882291047      2311.9159081940     -3097.9153686477      -415.7550595967       494.4475478259      1131.6308330512 
  195000       287.3552316354     11221.6058338428         0.7918306448       252.9297258064      -604.4781879348       255.9016095314       324.4805887872        11.8386263861      2315.3922438834     -3097.6367982359      -414.4544582871       175.0288607024      -476.0048540647 
  196000       291.7419410948     11304.7951679187         0.7860037490       286.6905014200      -583.8064359119       290.4024717989       328.9441323393         9.3986511000      2302.4451599865     -3096.5770483487      -418.4198027880       -39.0916319956     -1976.0078968100 
  197000       308.4728524702     11253.3392011112         0.7895977563       294.8474189123      -625.5710588620       288.4371813074       311.2859648707         5.3288860906      2283.8169086581     -3097.5839823934      -416.8560173954       339.4459049795       271.7457855289 
  198000       290.5482767192     11049.5758695946         0.8041585929       262.9402864434      -603.9950060345       288.3493232997       319.4026867741         6.9563818003      2318.3705012050     -3097.8825781388      -439.1913209748       -58.6687621057     -1995.7528658950 
  199000       310.0223580733     11271.4681750995         0.7883277711       338.8167358287      -586.2251426015       271.3814647858       329.4274026236        12.7366461526      2310.5465488714     -3099.0282416738      -411.2889633610       427.1957364882       537.6414057484 
  200000       312.0361761966     11142.1670879807         0.7974760487       298.9689328182      -632.0817577222       272.7632276625       318.7617710810         9.1809269483      2269.8289250599     -3097.5331302897      -405.0834781842       619.4819470042      1972.4232455023 
  201000       298.3222974805     11190.4149442636         0.7940377035       265.1112971288      -625.0200474426       274.2222132116       314.0679619792         8.6110767676      2287.2280652450     -3096.7423458913      -412.4070187547      -165.4919973120     -2638.4888800500 
  202000       316.4942626536     11567.7446489959         0.7681368887       381.6911199182      -562.6615682459       289.7346863136       320.2179752959        14.2978854938      2307.0102358478     -3098.0428112625      -395.8795399345         5.1351683072     -2232.0552142400 
  203000       299.8277908077     11337.0568648398         0.7837670296       292.3029230498      -602.3204987513       269.2459549934       308.1869464938         7.5589943382      2313.9052806127     -3097.9589894734      -403.2586857161       612.9669578275      1939.4296839423 
  204000       288.8693061910     11288.2070345153         0.7871587894       291.7669805737      -570.1586149880       278.1006077111       318.9096926933         7.9351990886      2353.2744221995     -3098.6892786004      -429.6892580801        90.4396308224     -1222.9309071308 
  205000       297.8385464489     11050.4615893930         0.8040941378       256.4585885459      -632.2293441190       269.0927283134       291.8361695607        18.2411416684      2297.9589547266     -3097.8140466262      -411.5442917618       612.4677200653      2209.0463530724 
  206000       304.3153684404     11005.2922716792         0.8073944030       291.9318191739      -616.0815957515       283.1858862616       307.1154484755         6.8879235958      2303.4409778179     -3097.2150892962      -419.4967426061       302.1251247842        63.5093364225 
  207000       302.6348889086     11146.5828743890         0.7971601238       291.7949550046      -611.2042604533       288.8583510501       307.0572156229         7.8314753069      2304.5055008514     -3096.9002619569      -422.5565413276      -124.0039528632     -2557.7948320584 
  208000       291.8236560658     10659.3486362853         0.8335979699       176.1186742619      -694.6220834536       253.2821791195       292.9296618452        12.3126901370      2294.8853816142     -3097.8727874505      -450.1592087189       184.0909867875        51.2835120060 
  209000       301.3736168125     10961.5223573496         0.8106183698       316.8216026830      -582.4142406223       279.5061969270       333.9267823645         7.5363631437      2338.2285654227     -3098.8483397104      -442.7638087698       637.6475494267      2006.8860822368 
  210000       296.3710135990     10695.9790036771         0.8307431588       229.4316047485      -654.8775168118       256.5094836910       304.3643699012        10.4504741816      2298.1300409158     -3097.7480860275      -426.5837994740       643.8917758680      2656.9682872900 
Loop time of 63.5491 on 64 procs for 100000 steps with 1002 atoms

Performance: 135.958 ns/day, 0.177 hours/ns, 1573.587 timesteps/s
99.3% CPU use with 64 MPI tasks x no OpenMP threads

MPI task timing breakdown:
Section |  min time  |  avg time  |  max time  |%varavg| %total
---------------------------------------------------------------
Pair    | 13.386     | 20.147     | 27.308     |  94.2 | 31.70
Bond    | 0.50826    | 0.54687    | 0.57392    |   2.0 |  0.86
Kspace  | 17.515     | 24.647     | 31.436     |  85.0 | 38.78
Neigh   | 1.6626     | 1.6725     | 1.6859     |   0.4 |  2.63
Comm    | 13.38      | 13.5       | 13.597     |   1.3 | 21.24
Output  | 0.05117    | 0.051226   | 0.051799   |   0.0 |  0.08
Modify  | 2.0997     | 2.1923     | 2.2743     |   2.0 |  3.45
Other   |            | 0.7918     |            |       |  1.25

Nlocal:    15.6562 ave 23 max 8 min
Histogram: 1 3 4 7 16 8 16 4 2 3
Nghost:    4927.61 ave 5002 max 4840 min
Histogram: 6 3 0 5 11 13 9 8 4 5
Neighs:    12590.9 ave 22312 max 4378 min
Histogram: 2 4 8 15 10 10 4 6 4 1

Total # of neighbors = 805817
Ave neighs/atom = 804.209
Ave special neighs/atom = 5
Neighbor list builds = 3721
Dangerous builds = 0
unfix equil
undump equil

# WRITE RESTART FILES, CLEANUP, AND EXIT
write_restart   md-8.end.restart
PPPM initialization ...
WARNING: Using 12-bit tables for long-range coulomb (../kspace.cpp:321)
  G vector (1/distance) = 0.187402
  grid = 8 8 8
  stencil order = 5
  estimated absolute RMS force accuracy = 0.00698511
  estimated relative force accuracy = 2.10354e-05
  using double precision FFTs
  3d grid and FFT values/proc = 343 8
write_data      md-8.end.data pair ii
PPPM initialization ...
WARNING: Using 12-bit tables for long-range coulomb (../kspace.cpp:321)
  G vector (1/distance) = 0.187402
  grid = 8 8 8
  stencil order = 5
  estimated absolute RMS force accuracy = 0.00698511
  estimated relative force accuracy = 2.10354e-05
  using double precision FFTs
  3d grid and FFT values/proc = 343 8
unfix		averages
Total wall time: 0:03:27
