
#===========================================================
# GENERAL PROCEDURES
#===========================================================
units		real	# g/mol, angstroms, fs, kcal/mol, K, atm, charge*angstrom
dimension	3	# 3 dimensional simulation
newton		on	# use Newton's 3rd law
boundary	p p p	# periodic boundary conditions
atom_style	full    # molecular + charge

#===========================================================
# FORCE FIELD DEFINITION
#===========================================================
special_bonds  lj   0.0 0.0 0.0  coul 0.0 0.0 0.0     # NO     1-4 LJ/COUL interactions
pair_style     hybrid lj/cut/coul/long 14.0 14.0 # outer_LJ outer_Coul (cutoff values, see LAMMPS Doc)
kspace_style   pppm 0.0001          # long-range electrostatics sum method
bond_style     harmonic             # parameters needed: k_bond, r0
angle_style    harmonic             # parameters needed: k_theta, theta0
dihedral_style hybrid opls            # parameters needed: V1, V2, V3, V4
pair_modify    shift yes mix arithmetic       # using Lorenz-Berthelot mixing rules

#===========================================================
# SETUP SIMULATIONS
#===========================================================

# READ IN COEFFICIENTS/COORDINATES/TOPOLOGY
read_data ${data_name}
read_data md-14.data
  orthogonal box = (-11.1888 -11.1888 -11.1888) to (11.1888 11.1888 11.1888)
  4 by 4 by 4 MPI processor grid
  reading atoms ...
  1002 atoms
  reading velocities ...
  1002 velocities
  scanning bonds ...
  1 = max bonds/atom
  scanning angles ...
  6 = max angles/atom
  scanning dihedrals ...
  3 = max dihedrals/atom
  reading bonds ...
  835 bonds
  reading angles ...
  1169 angles
  reading dihedrals ...
  501 dihedrals
  4 = max # of 1-2 neighbors
  3 = max # of 1-3 neighbors
  4 = max # of 1-4 neighbors
  5 = max # of special neighbors
include ${settings_name}
include md-14.in.settings
     # Non-bonded interactions (pair-wise)
     pair_coeff           1          1          lj/cut/coul/long     0.009246             2.469569
     pair_coeff           1          2          lj/cut/coul/long     0.001989             2.248286
     pair_coeff           1          3          lj/cut/coul/long     0.028203             3.130589
     pair_coeff           1          4          lj/cut/coul/long     0.039129             2.730465
     pair_coeff           2          2          lj/cut/coul/long     0.001000             1.776798
     pair_coeff           2          3          lj/cut/coul/long     0.003854             3.073941
     pair_coeff           2          4          lj/cut/coul/long     0.006271             2.610820
     pair_coeff           3          3          lj/cut/coul/long     0.202951             3.439574
     pair_coeff           3          4          lj/cut/coul/long     0.181814             3.226837
     pair_coeff           4          4          lj/cut/coul/long     0.208254             2.905767

     # Stretching interactions
     bond_coeff           1           366.904251           1.096103
     bond_coeff           2           612.219900           0.957501
     bond_coeff           3           368.709924           1.411527

     # Bending interactions
     angle_coeff          1           40.926667            108.205025
     angle_coeff          2           61.328715            112.232133
     angle_coeff          3           49.873049            108.741688

     # Dihedral interactions
     dihedral_coeff       1          opls                  0.105414            -0.205941             0.372587            -0.070860

# SET RUN PARAMETERS
timestep	1.0		# fs
run_style	verlet 		# Velocity-Verlet integrator
neigh_modify every 1 delay 0 check no one 10000 # More relaxed rebuild criteria can be used

#===========================================================
# RUN CONSTRAINED RELAXATION
#===========================================================

# SET OUTPUTS
thermo_style    custom step temp vol density etotal pe ebond eangle edihed ecoul elong evdwl enthalpy press
thermo_modify   format float %20.10f
thermo ${thermo_freq}
thermo 1000

# DECLARE RELEVANT OUTPUT VARIABLES
variable        my_step equal   step
variable        my_temp equal   temp
variable        my_rho  equal   density
variable        my_pe   equal   pe
variable        my_ebon equal   ebond
variable        my_eang equal   eangle
variable        my_edih equal   edihed
variable        my_evdw equal   evdwl
variable        my_eel  equal   (ecoul+elong)
variable        my_ent  equal   enthalpy
variable        my_P    equal   press
variable        my_vol  equal   vol

fix  averages all ave/time ${dump4avg} $(v_avg_freq/v_dump4avg) ${avg_freq} v_my_temp v_my_rho v_my_vol v_my_pe v_my_edih v_my_evdw v_my_eel v_my_ent v_my_P file thermo.avg
fix  averages all ave/time 100 $(v_avg_freq/v_dump4avg) ${avg_freq} v_my_temp v_my_rho v_my_vol v_my_pe v_my_edih v_my_evdw v_my_eel v_my_ent v_my_P file thermo.avg
fix  averages all ave/time 100 10 ${avg_freq} v_my_temp v_my_rho v_my_vol v_my_pe v_my_edih v_my_evdw v_my_eel v_my_ent v_my_P file thermo.avg
fix  averages all ave/time 100 10 1000 v_my_temp v_my_rho v_my_vol v_my_pe v_my_edih v_my_evdw v_my_eel v_my_ent v_my_P file thermo.avg

# INITIALIZE VELOCITIES AND CREATE THE CONSTRAINED RELAXATION FIX
velocity        all create ${ANNEAL_TEMP} ${vseed} mom yes rot yes     # DRAW VELOCITIES
velocity        all create 100.0 ${vseed} mom yes rot yes     
velocity        all create 100.0 61144 mom yes rot yes     

fix relax all nve/limit 0.01
run             10000
PPPM initialization ...
WARNING: Using 12-bit tables for long-range coulomb (../kspace.cpp:321)
  G vector (1/distance) = 0.186453
  grid = 8 8 8
  stencil order = 5
  estimated absolute RMS force accuracy = 0.00731596
  estimated relative force accuracy = 2.20318e-05
  using double precision FFTs
  3d grid and FFT values/proc = 343 8
Neighbor list info ...
  update every 1 steps, delay 0 steps, check no
  max neighbors/atom: 10000, page size: 100000
  master list distance cutoff = 16
  ghost atom cutoff = 16
  binsize = 8, bins = 3 3 3
  1 neighbor lists, perpetual/occasional/extra = 1 0 0
  (1) pair lj/cut/coul/long, perpetual
      attributes: half, newton on
      pair build: half/bin/newton
      stencil: half/bin/3d/newton
      bin: standard
Per MPI rank memory allocation (min/avg/max) = 8.554 | 8.683 | 9.267 Mbytes
Step Temp Volume Density TotEng PotEng E_bond E_angle E_dihed E_coul E_long E_vdwl Enthalpy Press 
       0       100.0000000000     11205.7793576727         0.7929489864      -291.5394971382      -589.9185831432       271.5332383820       314.3871016871        13.6062331182      2326.0622825934     -3100.5031577968      -415.0042811272      -560.7605620214     -1647.3697289972 
    1000        24.1423542394     11205.7793576727         0.7929489864     -1399.1635691311     -1471.1993050507         9.4204616258        17.6149565317       -35.8644407598      2081.1560177794     -3103.5493622936      -439.9769379342     -1866.6321460359     -2860.4506975879 
    2000        18.7987402143     11205.7793576727         0.7929489864     -1440.5042312358     -1496.5957404676         8.8842833799        17.2307680970       -36.8636520684      2062.9887801631     -3103.9535775504      -444.8823424888     -1896.3572287227     -2789.3747068363 
    3000        16.6339750997     11205.7793576727         0.7929489864     -1463.9008624408     -1513.5331653095         8.5951800503        16.7862479795       -37.3535525757      2041.3380068090     -3104.4187210718      -438.4803265009     -1857.5464006417     -2408.7258694574 
    4000        15.4988584268     11205.7793576727         0.7929489864     -1478.7237311038     -1524.9690832188         8.3565485994        17.1440668512       -36.3526228113      2036.0591404264     -3104.5982254609      -445.5779908235     -1851.9798046836     -2283.9622785333 
    5000        14.1390262314     11205.7793576727         0.7929489864     -1491.8487131677     -1534.0366104071         8.4499847043        16.9620650066       -37.7710302118      2036.1986633304     -3104.0425038235      -453.8337894131     -1849.4590245277     -2188.2255089042 
    6000        13.2342293852     11205.7793576727         0.7929489864     -1500.3362091971     -1539.8243818765         8.8254451259        16.3018409199       -36.0541573772      2023.6437339306     -3104.5119785451      -448.0292659305     -1872.5110957943     -2277.3464711581 
    7000        13.3177376195     11205.7793576727         0.7929489864     -1506.1661187253     -1545.9034625107         8.5435949998        16.5558392200       -37.8504137556      2021.5054496519     -3104.3465722284      -450.3113603985     -1893.7216415367     -2371.4609288179 
    8000        11.9588269005     11205.7793576727         0.7929489864     -1512.0996412644     -1547.7822796671         8.4718443225        16.5108520881       -37.1245058062      2027.8908794431     -3104.1099414026      -459.4214083120     -1918.9865527842     -2489.7501295221 
    9000        10.8035464120     11205.7793576727         0.7929489864     -1516.9196795156     -1549.1552025559         8.3597414701        17.1876920184       -36.6896568477      2020.1664747253     -3104.2655596757      -453.9138942464     -1872.5672896918     -2176.2156963786 
   10000        11.0141462251     11205.7793576727         0.7929489864     -1519.4313580100     -1552.2952668478         7.9717012502        16.8029439790       -37.3340616885      2015.6065977671     -3104.1374695503      -451.2049786053     -1861.5316476165     -2093.3193382308 
Loop time of 12.7531 on 64 procs for 10000 steps with 1002 atoms

Performance: 67.748 ns/day, 0.354 hours/ns, 784.124 timesteps/s
98.9% CPU use with 64 MPI tasks x no OpenMP threads

MPI task timing breakdown:
Section |  min time  |  avg time  |  max time  |%varavg| %total
---------------------------------------------------------------
Pair    | 0.49781    | 1.954      | 3.1665     |  46.8 | 15.32
Bond    | 0.019287   | 0.049205   | 0.081095   |   5.2 |  0.39
Kspace  | 1.4066     | 2.6413     | 4.1032     |  40.8 | 20.71
Neigh   | 4.1942     | 4.5266     | 4.5832     |   3.6 | 35.49
Comm    | 3.4106     | 3.4746     | 3.7766     |   3.6 | 27.25
Output  | 0.0017507  | 0.0018413  | 0.0018599  |   0.0 |  0.01
Modify  | 0.0084105  | 0.010162   | 0.011482   |   0.6 |  0.08
Other   |            | 0.09529    |            |       |  0.75

Nlocal:    15.6562 ave 23 max 3 min
Histogram: 1 2 5 1 4 7 11 15 10 8
Nghost:    4751.98 ave 5015 max 4543 min
Histogram: 6 8 11 8 10 3 2 3 8 5
Neighs:    11993.9 ave 22035 max 1937 min
Histogram: 3 5 5 7 8 14 10 7 3 2

Total # of neighbors = 767610
Ave neighs/atom = 766.078
Ave special neighs/atom = 5
Neighbor list builds = 10000
Dangerous builds not checked
unfix relax

#===========================================================
# RUN RAMPED ANNEAL
#===========================================================

# REINITIALIZE THE VELOCITIES AND CREATE THE ANNEALING FIX
velocity        all create ${ANNEAL_TEMP} ${vseed} mom yes rot yes     # DRAW VELOCITIES
velocity        all create 100.0 ${vseed} mom yes rot yes     
velocity        all create 100.0 61144 mom yes rot yes     

fix mom all momentum 1000 linear 1 1 1 angular # Zero out system linear and angular momentum every ps
fix anneal all npt temp ${ANNEAL_TEMP} ${FINAL_TEMP} 100.0 iso ${pressure} ${pressure} 1000.0 # NPT, nose-hoover 100 fs T relaxation
fix anneal all npt temp 100.0 ${FINAL_TEMP} 100.0 iso ${pressure} ${pressure} 1000.0 
fix anneal all npt temp 100.0 298.0 100.0 iso ${pressure} ${pressure} 1000.0 
fix anneal all npt temp 100.0 298.0 100.0 iso 1.0 ${pressure} 1000.0 
fix anneal all npt temp 100.0 298.0 100.0 iso 1.0 1.0 1000.0 

# CREATE COORDINATE DUMPS FOR ANNEAL
dump anneal all custom ${coords_freq} anneal.lammpstrj id type x y z mol
dump anneal all custom 1000 anneal.lammpstrj id type x y z mol
dump_modify anneal sort id format float %20.10g

# RUN RAMPED ANNEAL
run ${nSteps_ramp}
run 50000
PPPM initialization ...
WARNING: Using 12-bit tables for long-range coulomb (../kspace.cpp:321)
  G vector (1/distance) = 0.186453
  grid = 8 8 8
  stencil order = 5
  estimated absolute RMS force accuracy = 0.00731596
  estimated relative force accuracy = 2.20318e-05
  using double precision FFTs
  3d grid and FFT values/proc = 343 8
Per MPI rank memory allocation (min/avg/max) = 9.828 | 10.34 | 10.55 Mbytes
Step Temp Volume Density TotEng PotEng E_bond E_angle E_dihed E_coul E_long E_vdwl Enthalpy Press 
   10000       100.0000000000     11205.7793576727         0.7929489864     -1253.9161808428     -1552.2952668478         7.9717012502        16.8029439790       -37.3340616885      2015.6065977671     -3104.1374695503      -451.2049786053     -1419.0063523380     -1010.1904588858 
   11000        90.7165055333      9811.0976075818         0.9056694510     -1008.6881422602     -1279.3672223263       116.4633644686       107.3099492705       -17.1534522985      2101.0478534013     -3103.7630558413      -483.2718813268     -1602.5272376425     -4150.2599570438 
   12000       111.2962484931      9578.7184846462         0.9276409363      -990.8107619482     -1322.8954909596        83.2522246865       103.2320340713       -13.0004676969      2108.4922233982     -3102.6164222530      -502.2550831657      -941.6943557186       351.5954802363 
   13000       114.1958104589      9515.2890662201         0.9338246397      -965.1304414648     -1305.8668569682        94.1121269728       111.8356964391       -12.3403241555      2115.8884432361     -3103.6820770582      -511.6807224024     -1050.5923067917      -615.8493565069 
   14000       122.2840011262      9667.1775567935         0.9191525998      -927.5960697740     -1292.4659546646        85.3086838126       113.6051336728       -10.6420770601      2137.0376589138     -3103.5014133548      -514.2739406490      -850.1418698352       549.3756263082 
   15000       118.9421551330      9629.7858802024         0.9227215947      -927.2760876040     -1282.1746029646       102.0472405730       115.9214655088        -8.7945143271      2121.9506860649     -3104.3083717457      -508.9911090386     -1123.4224675512     -1396.6506159414 
   16000       123.3473892856      9582.3363644398         0.9272906988      -880.9090445343     -1248.9518572957       109.9139260829       127.4733970286       -10.9341257241      2132.0150785635     -3103.1350838817      -504.2850493650     -1240.4332329554     -2572.6506372373 
   17000       131.9684669612      9644.7057815490         0.9212941882      -867.6274514135     -1261.3937569471       103.7454421427       128.3107393581       -10.6932370014      2127.6690140085     -3104.0753774985      -506.3503379565      -828.9823295280       274.7450067620 
   18000       130.2098565026      9643.9435136045         0.9213670083      -838.1869707336     -1226.7059504545       104.7516269713       139.8468994422       -11.9028303163      2139.3296196494     -3102.9325885071      -495.7986776939      -871.6693400259      -238.0595644903 
   19000       143.7251893166      9544.7629146516         0.9309410263      -800.4358439871     -1229.2817502288       119.1613353948       140.8023061416       -10.8747426304      2135.7257833131     -3103.5620654145      -510.5343670334      -978.7513892988     -1280.9971731323 
   20000       138.6319514775      9530.6948511443         0.9323151693      -807.7141123730     -1221.3628621024       107.1814603590       146.5835052170        -7.7990839756      2138.5848427538     -3102.5707927963      -503.3427936603      -587.6050636860      1583.5706453040 
   21000       142.7924980566      9743.3635977608         0.9119654927      -765.7437596769     -1191.8067102619       122.3484624784       152.3101179911        -8.8521962659      2139.4313228072     -3102.9275599963      -494.1168572765      -649.2940941351       819.5084698793 
   22000       148.1394558639      9731.4413123461         0.9130827694      -734.2272676451     -1176.2444220646       122.9035831039       158.7865837708        -7.9045648806      2148.6323955995     -3103.9323821150      -494.7300375432      -682.6542057727       363.3873951230 
   23000       149.5296990263      9785.7635614906         0.9080141092      -718.3372042197     -1164.5025534805       129.9385204990       166.8338361800        -9.1873549859      2140.8822247389     -3103.5247848910      -489.4449950213     -1021.5143276416     -2124.3487732632 
   24000       157.3008695520      9697.8302482605         0.9162473622      -678.0764411530     -1147.4293380002       127.0121824430       178.9561998038        -9.8748495263      2147.8363218190     -3103.5879850365      -487.7712075032      -584.4777419302       661.7886978296 
   25000       158.8404128412      9700.2036927124         0.9160231749      -680.1942563055     -1154.1408283477       128.6893592147       179.3970250729        -9.8611194610      2153.4277298944     -3103.6159140952      -502.1779089735      -396.2474793309      2007.1517112716 
   26000       164.5024680176      9916.5733940177         0.8960364665      -628.6953089481     -1119.5362694748       146.6747853212       171.9187088006        -3.3431851498      2164.3910638310     -3102.9868959182      -496.1907463596      -781.3043592071     -1055.2194064561 
   27000       162.4149447460      9905.4159402202         0.8970457614      -641.8125606783     -1126.4247883470       142.8185003254       172.9008294715        -9.5799362388      2157.6249572120     -3103.7194320816      -486.4697070356      -645.8547491800       -27.9813044056 
   28000       170.8154824061     10055.7601308136         0.8836339837      -603.5224752835     -1113.2001504419       137.3780545129       187.0963401995        -2.4310756310      2129.4630128134     -3103.2588973933      -461.4475849432       -84.6494121227      3538.1018505110 
   29000       172.5701209767     10118.2799716342         0.8781740976      -570.4850922839     -1085.3982419719       144.2911003574       187.2151107307        -9.3972528174      2170.3365619809     -3103.5604149390      -474.2833472845      -541.6935822784       195.1110477344 
   30000       177.4257259158      9876.4365122690         0.8996778719      -543.2571972165     -1072.6584565418       155.1824787441       202.5936543299         2.3843376087      2135.4302117682     -3102.4065419665      -465.8425970262      -287.6140999130      1774.8346750387 
   31000       183.3103402141      9901.2695275545         0.8974214225      -532.3884488874     -1079.3481665710       155.6230191392       190.5836606307        -5.7511498841      2168.4446809403     -3103.8393735876      -484.4090038094      -892.3591019456     -2492.8739752033 
   32000       184.1954031160      9819.4030022476         0.9049034225      -528.0609056570     -1077.6614659377       150.2765604362       194.5099119621        -3.2042435871      2170.5394678021     -3103.7986693228      -485.9844932282      -784.7137467622     -1792.1943437702 
   33000       189.7506159462     10041.4256930761         0.8848953978      -456.7620688938     -1022.9382224429       169.8304554301       194.2964905552        -5.9028285022      2186.2273277268     -3103.0746206395      -464.3150470132      -532.5653537551      -517.6268045599 
   34000       199.4135990332     10075.3841652893         0.8819129115      -410.8787603908     -1005.8872345556       162.8214779126       222.7418640897         0.0117670048      2184.2331523735     -3101.0878588616      -474.6076370746      -689.6628922741     -1897.2761471713 
   35000       205.1624598812     10149.8120199154         0.8754459064      -371.1735338872      -983.3354065061       166.6313944097       226.1442978874         6.0332338460      2198.7179298358     -3103.7599503979      -477.1023120870       -68.9832808889      2041.4867424033 
   36000       200.6413146711      9881.7207192351         0.8991967731      -395.0508467066      -993.7225675706       174.0074602507       223.8672925063        -3.2404459514      2198.5481410728     -3102.8898892649      -484.0151261841      -351.1633642396       304.5314876430 
   37000       206.9483251861     10161.6465173968         0.8744263411      -361.4185245985      -978.9090457915       166.6687497264       226.6087607777         7.9038457928      2182.9576053973     -3103.8265882021      -459.2214192835       174.9542037559      3619.3177719306 
   38000       211.8245167093     10022.1091914598         0.8866009354      -330.6149041927      -962.6549610844       178.7421386065       244.6856781984        -4.6901009667      2184.9485236081     -3102.7710269317      -463.5701735989      -534.1721521615     -1392.6806811163 
   39000       226.0886465815     10199.8023401993         0.8711552525      -240.2778881388      -914.8791253698       184.9131229120       261.4481367216         2.5214213561      2222.1222428386     -3102.8613082843      -483.0227409138       -65.9369949893      1172.0108208206 
   40000       218.7119355011     10150.7437624871         0.8753655487      -267.0189354533      -919.6096095854       192.1686486396       256.7344029957         4.0489718443      2210.4230066323     -3103.2209129315      -479.7637267658      -592.7223634680     -2200.1311767485 
   41000       232.7201673352     10103.6038491364         0.8794497009      -204.4302043138      -898.8185125580       190.7599805850       250.8729498327         4.5385541763      2217.3345135979     -3103.9042744938      -458.4202362562         5.6815890013      1425.9300795585 
   42000       232.8210680847     10307.6008021540         0.8620445780      -197.2422223530      -891.9315973313       188.5562884980       245.2706445642         0.8653255589      2251.7378709026     -3101.6848136165      -476.6769132385      -284.5632552843      -580.8786097936 
   43000       221.7381929801     10393.7080039306         0.8549029259      -197.5089324233      -859.1293259614       208.3679644279       258.2057796137        -0.3768004260      2234.1497449129     -3102.9470693181      -456.5289451719      -176.6172913379       137.8244141007 
   44000       235.4991539330     10216.1729542880         0.8697592947      -181.4488279487      -884.1290510033       209.5577568521       242.4365198290        -3.8477002618      2229.4669192362     -3103.6086131094      -458.1339335493      -194.4807248345       -87.4668545555 
   45000       226.2083796304     10664.5220516366         0.8331935872      -169.7481291026      -844.7066247106       217.3528934747       240.1672101635         5.3049406929      2229.6733274910     -3103.3882054030      -433.8167911298      -457.6631467904     -1851.1731066763 
   46000       242.6431977428     10533.1191871623         0.8435878514       -97.7039500332      -821.7005057114       209.8714391210       254.8662828930         3.2540949303      2263.4798385272     -3103.0501233795      -450.1220378033      -399.2873164729     -1963.2449856195 
   47000       248.9140795555     10599.2291669864         0.8383261880       -55.0952246587      -797.8027801741       208.5681687778       262.4827067771         6.7426417922      2297.7304572602     -3102.7658535594      -470.5609012219      -183.8613234005      -833.0122084687 
   48000       252.1654744362     10901.6609782583         0.8150695019         4.5865360572      -747.8225017858       229.6313087573       282.0022547643         3.5388039186      2302.1003191179     -3102.6872342302      -462.4079541136        31.5932914191       169.8649786625 
   49000       241.2417825323     10589.7483088139         0.8390767301       -57.9624811215      -777.7775069036       224.6987437088       277.8588976024         4.7401400736      2251.2667671376     -3100.5341795348      -435.8078758912      -260.8299456276     -1313.5628997598 
   50000       260.1874974698     10529.7345299163         0.8438590126       -16.8338338963      -793.1789107459       220.2362926486       266.7595247659         4.8610456986      2256.0364521428     -3102.5270483150      -438.5451776868        22.7322095160       257.6495045431 
   51000       260.9675242754     10478.8793226579         0.8479543575        52.5889188682      -726.0835948346       251.2912369116       276.1076029083         8.2296114197      2296.7729459692     -3102.2778475112      -456.2071445323       352.4966381574      1962.4423876565 
   52000       267.6341197504     10548.2036580196         0.8423814776        59.3491306914      -739.2151096574       242.2805728996       280.9661031926         6.4341863448      2275.6921205253     -3103.0118076342      -441.5762849854       141.5634709062       534.4328931794 
   53000       260.7707610940     10468.8614913780         0.8487657794        48.0103285518      -730.0750849687       238.8706429694       274.1377416339        11.5436158802      2290.6665281966     -3100.9616770161      -444.3319366328       506.2650514026      3001.4534090475 
   54000       262.2737317587     10831.1821681577         0.8203731823       103.2218865159      -679.3480771369       265.4434615642       292.8058897779         1.6490682959      2280.0122715490     -3100.9326292338      -418.3261390902       185.8835231302       523.3018257798 
   55000       280.9909493324     10963.1160668482         0.8105005301       165.0028315249      -673.4153948500       262.1315921130       282.9112525874         8.7657290091      2310.8544801071     -3102.5494497174      -435.5289989492       327.3875460930      1015.6293548536 
   56000       277.3934887887     11161.7103725989         0.7960797303       221.3087270427      -606.3754294423       249.7220671753       327.8982817852        10.6202095979      2327.7114972060     -3101.0418549978      -421.2856302088       161.3325997498      -368.4442481514 
   57000       278.5196363199     11083.9940945059         0.8016615047       195.0108380516      -636.0335071441       232.1075098621       322.7952974688        16.4882731252      2310.5239557271     -3101.5873367426      -416.3612065847       -69.4374100617     -1635.9443236844 
   58000       295.1690214714     11214.9915215231         0.7922976461       230.7613606138      -649.9612678226       262.2061181226       299.8073255632         8.8586972691      2298.1123951409     -3103.2202849192      -415.7255189992       134.3645948210      -589.3694550598 
   59000       292.1236215800     11341.1613841333         0.7834833738       252.5906566243      -619.0451354509       266.8784651191       302.7112683779        10.3333040571      2338.1991451026     -3101.3426241881      -435.8246939195       351.4546938205       597.7298180882 
   60000       302.6079437699     11108.7158138229         0.7998774595       322.9356393949      -579.9831774042       277.9531005051       326.1696691223         2.1952758756      2335.1767645324     -3101.6765036782      -419.8014837613       332.1589791545        56.9309539393 
Loop time of 69.2831 on 64 procs for 50000 steps with 1002 atoms

Performance: 62.353 ns/day, 0.385 hours/ns, 721.676 timesteps/s
99.3% CPU use with 64 MPI tasks x no OpenMP threads

MPI task timing breakdown:
Section |  min time  |  avg time  |  max time  |%varavg| %total
---------------------------------------------------------------
Pair    | 7.8735     | 11.813     | 16.129     |  68.9 | 17.05
Bond    | 0.24753    | 0.28642    | 0.35697    |   4.1 |  0.41
Kspace  | 8.6939     | 13.039     | 16.972     |  66.1 | 18.82
Neigh   | 22.32      | 23.68      | 23.975     |   6.5 | 34.18
Comm    | 17.525     | 18.162     | 19.908     |  10.0 | 26.21
Output  | 0.031444   | 0.031492   | 0.032163   |   0.0 |  0.05
Modify  | 1.1674     | 1.5697     | 1.9595     |  20.1 |  2.27
Other   |            | 0.703      |            |       |  1.01

Nlocal:    15.6562 ave 23 max 8 min
Histogram: 2 5 3 8 13 4 14 7 5 3
Nghost:    4783.73 ave 4857 max 4705 min
Histogram: 2 5 4 6 14 15 4 5 3 6
Neighs:    12111 ave 22806 max 5045 min
Histogram: 4 9 9 12 10 9 5 5 0 1

Total # of neighbors = 775101
Ave neighs/atom = 773.554
Ave special neighs/atom = 5
Neighbor list builds = 50000
Dangerous builds not checked
unfix anneal

# RUN EQUILIBRATION PHASE AT FINAL TEMP
fix anneal all npt temp ${FINAL_TEMP} ${FINAL_TEMP} 100.0 iso ${pressure} ${pressure} 1000.0 # NPT, nose-hoover 100 fs T relaxation
fix anneal all npt temp 298.0 ${FINAL_TEMP} 100.0 iso ${pressure} ${pressure} 1000.0 
fix anneal all npt temp 298.0 298.0 100.0 iso ${pressure} ${pressure} 1000.0 
fix anneal all npt temp 298.0 298.0 100.0 iso 1.0 ${pressure} 1000.0 
fix anneal all npt temp 298.0 298.0 100.0 iso 1.0 1.0 1000.0 
run ${nSteps_ramp}
run 50000
PPPM initialization ...
WARNING: Using 12-bit tables for long-range coulomb (../kspace.cpp:321)
  G vector (1/distance) = 0.18663
  grid = 8 8 8
  stencil order = 5
  estimated absolute RMS force accuracy = 0.00725301
  estimated relative force accuracy = 2.18422e-05
  using double precision FFTs
  3d grid and FFT values/proc = 343 8
Per MPI rank memory allocation (min/avg/max) = 10.43 | 10.55 | 10.56 Mbytes
Step Temp Volume Density TotEng PotEng E_bond E_angle E_dihed E_coul E_long E_vdwl Enthalpy Press 
   60000       302.6079437699     11108.7158138229         0.7998774595       322.9365216770      -579.9822951222       277.9531005051       326.1696691223         2.1952758756      2338.1233222617     -3104.6221791256      -419.8014837613       332.1643066879        56.9583921998 
   61000       294.7775823694     11057.1890684444         0.8036049061       244.3975867764      -635.1570692451       273.6567740830       288.1521425639         8.8406924975      2337.2723380002     -3104.5752463392      -438.5037700504       644.9031488518      2483.6358879461 
   62000       303.3523489372     11350.5277611557         0.7828368487       350.3744208582      -554.7655452753       276.2402667134       318.6402345027        12.6617914486      2353.7701368930     -3105.2191473158      -410.8588275172       269.7513742950      -487.0429491593 
   63000       294.3055360483     10979.0924956643         0.8093211153       278.6278775906      -599.5182909326       250.5778566976       320.6783931110        19.4082021281      2347.6639254404     -3104.8225883043      -433.0240800054        10.1997581365     -1676.4309709265 
   64000       307.6501192775     11343.8109445918         0.7833003765       321.2857988884      -596.6778151051       241.4020990807       333.4273231018        12.1262841950      2343.2510732388     -3104.5035004725      -422.3810942488       266.5816431708      -330.6628847914 
   65000       308.1199626889     11145.3269724142         0.7972499511       367.9743067750      -551.3912216952       278.6201364871       325.5077205888        19.7928976563      2348.2818900449     -3105.0043603607      -418.5895061116       565.5612730997      1215.5969169035 
   66000       303.5781498863     11161.7059402360         0.7960800465       305.6001759440      -600.2135329976       263.0648123170       326.4420383992         8.9322379511      2340.9398833985     -3104.6908083644      -434.9016966990       -60.3843389449     -2248.3102703872 
   67000       310.9511175888     11099.9238103568         0.8005110247       364.7582295219      -563.0548730620       287.9555930253       326.1365460211        12.6980050367      2331.5002570382     -3103.4350437334      -417.9102304499        75.1936198806     -1788.7497844507 
   68000       296.5116785078     11770.2112801943         0.7549236944       332.9301108371      -551.7987253926       283.7677044388       332.9821411177         9.2310989163      2305.3332345439     -3104.7686623522      -378.3442420571       210.6127637977      -712.5706084489 
   69000       291.3593026799     10967.2470669656         0.8101952413       274.3236548134      -595.0315695134       283.0830836639       323.9927123598        10.8870746076      2329.2341227432     -3105.1546332025      -437.0739296854        56.0598530802     -1364.6088982347 
   70000       296.2819576644     11224.3413698892         0.7916376641       311.6252751129      -572.4181221638       282.6804172174       325.7168715119         4.9323045650      2341.8338464022     -3103.2005219201      -424.3810399401       254.7454607116      -347.4732806554 
   71000       308.8758517940     11210.1008818310         0.7926433024       322.4998079155      -599.1211355577       290.2645900036       298.3306561326        -0.4696944411      2340.8685060702     -3105.0186984483      -423.0964948747       -32.7604953054     -2173.0077330307 
   72000       297.8674292371     11391.1062863744         0.7800481499       301.1985240237      -587.5755888404       274.8621691675       321.7040528736        12.4949907987      2331.4969695042     -3105.6455405011      -422.4882306833      -175.0846977918     -2866.9722492227 
   73000       294.9503711816     10954.1257393759         0.8111657283       290.7200155545      -589.3502061456       267.6159802505       320.6754732904         8.8426517526      2351.1218611130     -3105.3457561353      -432.2604164170       746.9327982988      2855.7082655229 
   74000       291.5699662991     11375.6384443589         0.7811088078       333.4102136058      -536.5735869025       279.8623355726       333.8397105016        14.5543166169      2326.3459242974     -3104.3036065604      -386.8722673306       219.8564870202      -684.4625985082 
   75000       297.3274628886     10907.7145916545         0.8146171509       240.8306848304      -646.3322813784       259.1969984453       304.5499489770        12.2885155821      2301.5945143226     -3104.4900141844      -419.4722445210       585.0688693147      2163.9607907074 
   76000       292.3873431937     11354.9756213932         0.7825302035       253.9695656652      -618.4531165505       249.2544496947       295.4019026774        10.5936303298      2334.8099985536     -3106.1485561869      -402.3645416191       346.8841936346       561.0763935219 
   77000       292.7354502318     11415.0592017635         0.7784113272       305.4247093999      -568.0366514145       274.0680058715       310.7842006029        12.1087444470      2342.8066070425     -3105.9042689814      -401.8999403971       699.4272831356      2366.7097567755 
   78000       281.1343718932     11336.2346669137         0.7838238749       270.6426230963      -568.2035462046       264.0727718959       317.1307409740         7.9615671123      2358.9080881269     -3105.5513784553      -410.7253358584       128.5960401547      -859.1837885025 
   79000       293.0099087854     11169.6110409262         0.7955166345       269.8374862957      -604.4428014423       286.7442408443       304.2254351689        11.3172905626      2326.2090610826     -3105.9476488337      -426.9911802670       461.9555922051      1179.3816245478 
   80000       301.0202484553     11406.6603833643         0.7789844779       342.0698391006      -556.1116269304       287.3389177630       318.5372856539        12.7325480609      2333.1702641775     -3104.1880305981      -403.7026119877       382.4799997655       242.9160309471 
   81000       314.2410108724     11518.3093771942         0.7714336447       414.5903104497      -523.0391456443       287.7944021942       340.3353777862        11.1054903755      2349.9466598989     -3105.0266609562      -407.1944149429       -88.5729860490     -2995.3275777952 
   82000       293.0731957627     10830.4989348799         0.8204249349       312.6253721799      -561.8437506625       267.1356646880       344.1968871410        14.3055474391      2344.0322437041     -3104.0856550770      -427.4284385576         5.8510446524     -1942.2031734394 
   83000       304.5230772398     11374.9619135792         0.7811552646       325.3913022262      -583.2418723163       267.3112718856       335.4730322973        11.3357385454      2320.9954253305     -3105.1854464296      -413.1718939455       870.0684346839      3283.3206777408 
   84000       299.7091076306     11353.9926207331         0.7825979530       320.6627273488      -573.6065686733       274.6399158747       345.7186766363        14.4151365202      2320.2918776250     -3104.4153205695      -424.2568547601       -77.7003395153     -2405.7725772634 
   85000       305.4650595650     10983.6947112990         0.8089820063       345.6185239319      -565.8253288628       269.9883471770       349.8004782322        11.9030392960      2337.7580556519     -3105.7137454797      -429.5615037401       480.5704403720       842.4705215077 
   86000       300.2533014349     11390.7114096476         0.7800751914       300.3536342138      -595.5394223075       267.3088280729       332.5412695131         8.3366877129      2323.1277895653     -3105.9724526657      -420.8815445060      -200.4731839692     -3014.8161846337 
   87000       302.8859838862     11312.0393161981         0.7855003979       344.8948900036      -558.8535403533       273.0621671488       335.9409714399        10.4555415463      2331.4536804431     -3103.4609161085      -406.3049848229       626.1866977293      1705.0624444543 
   88000       301.1428113656     10962.6795157358         0.8105328055       316.0744069051      -582.4727612172       275.7961707463       332.8278688201        11.0070827807      2324.2521583512     -3104.4888140611      -421.8672278543       709.7877018613      2462.5636972077 
   89000       289.3409958517     11207.1852859579         0.7928495119       291.2072883740      -572.1257304860       273.9082642821       337.3487943603         9.2581792528      2332.5130115847     -3104.5921713802      -420.5618085857       946.8418579841      4011.3393426001 
   90000       298.9821765975     11197.5386556420         0.7935325483       258.9328259812      -633.1674598682       236.7985795579       341.3094861992         8.5995973630      2293.9313750259     -3104.8802988300      -408.9261991842       169.3838970305      -548.3551619625 
   91000       296.9140474722     10841.3924057099         0.8196005689       212.2031161632      -673.7263049047       258.8627824622       287.0232471203        15.1300806212      2306.4069123122     -3105.2024484026      -435.9468790180       621.1428182276      2586.4156698507 
   92000       302.3167106953     10985.7998704215         0.8088269847       275.7917684173      -626.2580697956       270.1630230089       319.5819877718         6.6488830201      2304.4689522402     -3104.6616870851      -422.4592287515       -42.1517017102     -1984.4599449645 
   93000       288.7359049443     11430.0414825740         0.7773910005       230.7525116958      -630.7750424453       270.1570667831       298.8374238082         9.6946273258      2320.4096287569     -3105.2012664209      -424.6725226983       -32.9183643800     -1581.7522693809 
   94000       313.4334844108     11036.4260253924         0.8051167437       321.7156541434      -613.5043118752       274.4471334532       308.1873630488        12.7056689841      2317.3467283122     -3104.4606320187      -421.7305736547       639.9147455519      1976.9450093826 
   95000       289.0010911358     11510.9988127385         0.7719235775       295.5702524395      -566.7485618359       267.5165864376       334.7615461148         9.8767219848      2318.6873582510     -3104.9512239291      -392.6395506949       619.1891709769      1927.7246630906 
   96000       299.3373149358     10799.6591716946         0.8227677598       288.8046638359      -604.3552805414       284.2416847015       308.9561917063         5.9733574369      2334.9781870302     -3104.1336835538      -434.3710178625       321.7929339009       209.4467386410 
   97000       303.3102630934     10839.6298061859         0.8197338417       281.5693522829      -623.4450384945       256.5090163971       296.4917027019        15.1604136665      2357.8608824108     -3105.2748100308      -444.1922436400       488.0825846276      1306.3439685294 
   98000       300.2718693172     11174.2543846968         0.7951860659       295.8581414358      -600.0903177629       260.0466633889       331.9912170358        14.9972500897      2320.1562002936     -3105.7599691837      -421.5216793873       303.3351907483        45.8813091757 
   99000       302.1463271241     11489.2288743504         0.7733862282       319.9891683175      -581.5522809531       271.1604852047       321.6328895474        14.0160128064      2326.9645890760     -3104.5704173851      -410.7558402025       575.0930334811      1522.4753450334 
  100000       315.9147105556     11562.6502337676         0.7684753239       381.4203030605      -561.2031228507       263.7119053345       318.8749345105        19.3209541708      2338.7096794367     -3105.6148692756      -396.2057270275       544.9004580026       969.4641696934 
  101000       302.4084261721     10901.8931214817         0.8150521460       269.7564379351      -632.5670600792       236.0974851765       301.2167888369        14.1497494833      2347.6464535700     -3105.8537335573      -425.8238035886       490.9259486475      1391.0650771281 
  102000       288.7806466585     11406.9175245726         0.7789669176       297.2550520372      -564.4060020218       269.9355020282       327.3141513121         8.2863295069      2333.6960492325     -3105.7130600427      -397.9249740587       250.1865430645      -282.9347235759 
  103000       300.1570814231     11322.2210984160         0.7847940176       279.7906689359      -615.8152871936       266.4105084717       308.0761949039         4.7259923835      2312.5540746881     -3103.4335892890      -404.1484683517       224.3339844861      -335.8507947183 
  104000       297.6602042694     11435.6860822797         0.7770072840       335.8627743334      -552.2930225663       300.0890384472       318.4358127884        17.0460951281      2322.7141500650     -3105.4469889796      -405.1311300155       -82.0299078231     -2505.6860296269 
  105000       297.6251227468     11189.0762480018         0.7941327047       298.1926206207      -589.8585003524       272.9791666221       318.4747310093        13.8331809035      2347.1490798927     -3105.1778732315      -437.1167855485       217.5557872044      -494.1551684361 
  106000       311.3852514090     11392.7443773999         0.7799359916       358.7842881411      -570.3241789675       291.0498020919       317.0517099664        15.2243603229      2319.5645217033     -3105.2930700930      -407.9215029590       889.6751857335      3195.2219921703 
  107000       303.8340123668     11285.7247848719         0.7873319218       293.6150139101      -612.9621351622       262.3665232965       309.8492427780         1.3705441214      2330.5879368500     -3104.4510995562      -412.6852826520       738.4209568115      2702.4970986543 
  108000       300.3746146067     11593.9433300642         0.7664011399       384.6732443727      -511.5817852817       288.8694893574       357.2729608534        16.1571039672      2317.5729975009     -3104.2931278932      -387.1612090674       310.2631878996      -440.0728455510 
  109000       310.7408514033     10969.4377065646         0.8100334421       324.6489909470      -602.5367213143       276.6821150573       299.1259148253         2.8579357562      2343.0950111444     -3105.3711899660      -418.9265081315       429.6116986277       656.1071489987 
  110000       304.8653599700     11271.2434210869         0.7883434907       313.2015562951      -596.4529183294       270.2649794282       307.7795937293         5.8466390292      2345.4970988673     -3103.8916438895      -421.9495854939       371.9589394029       357.4495269718 
Loop time of 63.4005 on 64 procs for 50000 steps with 1002 atoms

Performance: 68.138 ns/day, 0.352 hours/ns, 788.637 timesteps/s
99.3% CPU use with 64 MPI tasks x no OpenMP threads

MPI task timing breakdown:
Section |  min time  |  avg time  |  max time  |%varavg| %total
---------------------------------------------------------------
Pair    | 7.137      | 10.581     | 14.696     |  66.0 | 16.69
Bond    | 0.2555     | 0.28176    | 0.3094     |   2.1 |  0.44
Kspace  | 8.4978     | 12.629     | 16.156     |  60.7 | 19.92
Neigh   | 20.792     | 21.856     | 22.068     |   5.1 | 34.47
Comm    | 15.629     | 16.121     | 17.479     |   8.2 | 25.43
Output  | 0.029015   | 0.029068   | 0.029451   |   0.0 |  0.05
Modify  | 1.1001     | 1.3917     | 1.7169     |  16.7 |  2.20
Other   |            | 0.5116     |            |       |  0.81

Nlocal:    15.6562 ave 23 max 6 min
Histogram: 1 0 7 2 12 19 4 10 8 1
Nghost:    4712.14 ave 4855 max 4562 min
Histogram: 3 5 5 8 5 13 12 4 6 3
Neighs:    11940.5 ave 19960 max 5592 min
Histogram: 5 8 5 8 11 8 13 3 1 2

Total # of neighbors = 764190
Ave neighs/atom = 762.665
Ave special neighs/atom = 5
Neighbor list builds = 50000
Dangerous builds not checked
unfix anneal
undump anneal

# RETURN TO LESS FREQUENT NEIGHBOR BUILDS
neigh_modify every 1 delay 10 check yes one 10000 # More relaxed rebuild criteria can be used

#===========================================================
# RUN EQUILIBRIUM SIM
#===========================================================

# UPDATE RUN PARAMETERS AND CREATE FIX
fix equil all npt temp ${FINAL_TEMP} ${FINAL_TEMP} 100.0 iso ${pressure} ${pressure} 1000.0 # NPT, nose-hoover 100 fs T relaxation
fix equil all npt temp 298.0 ${FINAL_TEMP} 100.0 iso ${pressure} ${pressure} 1000.0 
fix equil all npt temp 298.0 298.0 100.0 iso ${pressure} ${pressure} 1000.0 
fix equil all npt temp 298.0 298.0 100.0 iso 1.0 ${pressure} 1000.0 
fix equil all npt temp 298.0 298.0 100.0 iso 1.0 1.0 1000.0 

# CREATE COORDINATE DUMPS FOR EQUILIBRIUM
dump equil all custom ${coords_freq} equil.lammpstrj id type x y z mol
dump equil all custom 1000 equil.lammpstrj id type x y z mol
dump_modify equil sort id format float %20.10g

# RUN EQUIL
run		${nSteps_equil}
run		100000
PPPM initialization ...
WARNING: Using 12-bit tables for long-range coulomb (../kspace.cpp:321)
  G vector (1/distance) = 0.186334
  grid = 8 8 8
  stencil order = 5
  estimated absolute RMS force accuracy = 0.0073584
  estimated relative force accuracy = 2.21596e-05
  using double precision FFTs
  3d grid and FFT values/proc = 343 8
Per MPI rank memory allocation (min/avg/max) = 11.04 | 11.05 | 11.06 Mbytes
Step Temp Volume Density TotEng PotEng E_bond E_angle E_dihed E_coul E_long E_vdwl Enthalpy Press 
  110000       304.8653599700     11271.2434210869         0.7883434907       313.1999334894      -596.4545411351       270.2649794282       307.7795937293         5.8466390292      2340.5819365254     -3098.9781043534      -421.9495854939       371.9504955556       357.4080312831 
  111000       291.3582965142     11281.5199077299         0.7876253782       264.8270580978      -604.5251640410       267.4463716815       297.0755261068        23.3299121864      2338.1472061611     -3100.3235285236      -430.2006516532       606.7161181960      2077.9816149334 
  112000       291.4767826751     11166.8954873878         0.7957100873       253.2223426037      -616.4834174591       256.9076513348       301.2229022993        13.2065368519      2341.0877334641     -3099.0338723967      -429.8743690125        60.5197475761     -1183.2573809210 
  113000       301.4899810997     11328.6614095653         0.7843478644       326.9223155658      -572.6607344361       268.6125025730       324.5648364066        10.0717339066      2317.4387885056     -3099.5561460825      -393.7924497454       494.7686266782      1015.9148641212 
  114000       311.5084261063     11424.8717703677         0.7777427670       352.2015000996      -577.2744945449       279.7949112816       308.0941994590        17.0946705290      2339.9823436156     -3099.3543839605      -422.8862354697       444.6746665688       554.9942775960 
  115000       295.0743760720     11360.1933282898         0.7821707894       338.3263651238      -542.1138612349       283.3710460852       327.3999727610        16.6364618799      2318.9361898212     -3099.2468190228      -389.2107127593       876.0469158119      3245.6002119077 
  116000       298.8895282397     11322.8979275766         0.7847471063       334.6421549430      -557.1816875833       256.2327111487       345.6744475954        18.6784929616      2351.2496365445     -3100.5919952530      -428.4249805806       341.0532079241        38.8236071901 
  117000       308.8071461192     10926.8942384259         0.8131872781       246.7772383765      -674.6387017322       252.3074851438       283.5971241680        11.2044323484      2308.9368437948     -3100.1942458151      -430.4903413722       330.0350472951       522.4591607965 
  118000       303.4967394405     11180.8293755862         0.7947184493       314.7330679128      -590.8377292846       261.7056280245       319.3535824507         8.5314478401      2342.9285145626     -3100.6683949621      -422.6885072003       316.6526771661        11.7723434906 
  119000       291.7347766341     11336.7193204913         0.7837903658       252.0516580425      -618.4239020370       255.4611628897       310.2916164309        12.5651492817      2303.9151257861     -3099.2226277763      -401.4343286491       525.8604306578      1656.0905338278 
  120000       299.2201979732     11129.5426866392         0.7983806374       275.7619364086      -617.0485554462       275.4091021474       289.2891178826        11.2602131302      2325.4078001103     -3100.0069298836      -418.4078588330       420.7215940023       893.0873657617 
  121000       289.5294504900     11566.7948257649         0.7681999653       297.1605429539      -566.7347851336       267.5327031881       317.8328761944         2.8396851596      2343.9796066266     -3098.8411564065      -400.0784998959       248.7754843510      -286.8285318500 
  122000       294.3647727092     11617.9502938616         0.7648174729       301.0264830985      -577.2964352318       272.6812387350       311.7210479808         9.4128585661      2340.6536213484     -3099.9791157794      -411.7860860826       325.9946959881       147.3608287112 
  123000       299.1824162670     10846.8265375610         0.8191899587       293.9970005055      -598.7007586397       259.3594787786       312.7535613964        10.9957998888      2350.0074354121     -3100.1780008246      -431.6390332911       552.9008720743      1636.6656228309 
  124000       302.4840885165     11339.7779076772         0.7835789604       352.2081653178      -550.3410933082       272.7939837153       331.3548743457        14.4431620129      2332.2903702274     -3100.2356083652      -400.9878752442       279.3339947555      -440.6494034167 
  125000       301.6069741268     11295.7677950649         0.7866319089       311.9639674732      -587.9681652538       261.7860835190       318.3622522011        10.9241910763      2359.0989564646     -3100.0322701626      -438.1073783521       164.4577777558      -895.4031116001 
  126000       297.5968998354     10963.3461976961         0.8104835169       279.7372886848      -608.2296210232       290.8501809916       299.6597632641        13.3117027206      2324.6479946487     -3100.6594782097      -436.0397844384       305.8092990015       163.0630275686 
  127000       306.2834737256     11414.9106395781         0.7784214581       290.4374292814      -623.4484002054       244.2073135120       316.4646995203         9.8634868580      2319.4172467825     -3099.5709990778      -413.8301478003       301.6190877196        67.1672885037 
  128000       310.5076231240     11083.6172548981         0.8016887609       351.5285008851      -574.9613069681       273.7164250497       303.5346335105        16.1602957909      2350.1316808847     -3099.2469432795      -419.2573989245       242.0244793602      -677.4428437399 
  129000       292.7275671618     11568.2711771396         0.7681019270       317.9172744984      -555.5205648837       279.5793370484       318.0934224296        15.3607790510      2327.2714090129     -3099.1660042595      -396.6595081663      -144.8281519374     -2742.8230159321 
  130000       301.4813242230     11369.9446823277         0.7814999661       315.5149980338      -584.0422216585       265.1950582751       310.3197609421        13.0959858846      2332.1076608295     -3099.4556245373      -405.3050630526       608.2146258604      1765.1756549318 
  131000       299.4827031138     10903.7069200904         0.8149165645       291.9829420958      -601.6108101981       260.6356003892       299.8982497018         9.9823877558      2351.4114172816     -3100.3621064759      -423.1763588505       611.2366514006      2007.6402447655 
  132000       287.5901318440     11143.0742393490         0.7974111267       266.9774482534      -591.1313585833       269.3689355919       299.0528352436        10.6680162359      2366.6578145812     -3100.9672703767      -435.9116898591       885.1065883827      3803.6303531307 
  133000       287.1710224169     11492.3726610198         0.7731746651       281.5771178425      -575.2811541163       266.8352469488       314.0674717937        11.5886739061      2345.9043514746     -3100.4070153644      -413.2698828750        92.4325557337     -1128.5174273597 
  134000       291.5787113056     11159.7598541355         0.7962188703       269.1302221389      -600.8796716399       265.9970104851       308.4879029175         8.7496259218      2334.8871328402     -3099.3431774792      -419.6581663253       615.2879815152      2126.8816901637 
  135000       294.6796783087     11224.1392397006         0.7916519204       264.7028510341      -614.5596797460       265.5832805735       308.3360564264         5.7699458283      2326.7272020769     -3099.4191257608      -421.5570388904        72.6941642454     -1172.9836059735 
  136000       309.3409273421     11141.8915761415         0.7974957684       334.7550718711      -588.2535597717       263.9745506516       326.5582203906         9.8728551590      2327.8514933611     -3100.0622846208      -416.4483947132       434.1973746211       611.9787683192 
  137000       312.9241897572     11374.8899167076         0.7811602089       382.1720849456      -551.5282523406       278.0636834918       317.9184153118        13.6152059642      2367.7156994549     -3100.2641341657      -428.5771223976       174.0477061564     -1254.5843415570 
  138000       296.4062802385     11385.1276521474         0.7804577740       300.5136510954      -583.9006987416       267.3142498409       300.9642986075        10.0927891095      2348.7960637525     -3100.6441671480      -410.4239329040       373.0838204508       437.0633023200 
  139000       302.8499342257     11606.8785273517         0.7655470299       294.8023138877      -608.8385518216       248.5396275589       299.1884334788         6.9636342498      2326.9881020705     -3099.7740169824      -390.7443321973       706.8019941001      2433.9158014018 
  140000       304.6488881218     11217.8962247030         0.7920924927       284.7270625714      -624.2815053308       258.3780490708       290.2401851478        11.3657747472      2334.2169779456     -3098.3579776569      -420.1245145852       486.2553421076      1231.8240807970 
  141000       308.5107359683     11456.8457018848         0.7755722312       374.0094082390      -546.5221059704       283.6637330639       334.8323918967        11.4511423616      2328.8313154169     -3099.0047877182      -406.2959009913       440.1019396132       395.5591475691 
  142000       286.9181443903     11205.0266005291         0.7930022570       269.4195874454      -586.6841493687       281.3767003121       302.6751710121        10.6002930148      2331.1144192229     -3099.5710150894      -412.8797178413       474.1454764669      1252.8064608973 
  143000       306.7390621916     11330.1472239601         0.7842450065       325.7355830184      -589.5096271693       276.1475973125       303.7514314569        15.4218195379      2330.9004741025     -3098.2840403840      -417.4469091950      -135.3185448612     -2790.2330087166 
  144000       297.7921947210     11288.0367797562         0.7871706619       324.5141219663      -564.0355068364       268.5183233211       322.4305301029        16.1766236448      2342.4744385647     -3097.2099753907      -416.4254470792        47.3614002062     -1683.5454397266 
  145000       290.0806375505     11222.4764142246         0.7917692188       303.6620036459      -561.8779513547       278.9409531221       320.2310368097        13.7316814735      2333.0987802345     -3100.0642071676      -407.8161958269       349.4245851889       279.6056384431 
  146000       291.7711687728     11331.8688313615         0.7841258592       292.2731162558      -578.3110303545       278.7267395422       309.0678184094        13.5844164297      2336.0830724842     -3100.7966514579      -414.9764257622       459.5057043873      1011.9137165433 
  147000       298.0257168728     11323.9727775052         0.7846726196       329.4765076071      -559.7699024577       288.7312534486       314.0035500002        14.8467398928      2327.9356732371     -3099.8915193575      -405.3955996789       800.7998783574      2853.9362571593 
  148000       297.1295428786     11285.9800829951         0.7873141117       303.4952805807      -583.0771337114       273.9578150901       322.1437125325         5.7938063842      2304.2623347805     -3100.1455221759      -389.0892803228       560.0086949048      1558.4573175837 
  149000       289.0660674025     11170.9371510765         0.7954221981       260.6544674252      -601.8582224411       266.7073482785       298.0406863709        15.4634611630      2321.5539655308     -3101.0809105927      -402.5427731917       266.0159648483        32.9094484520 
  150000       303.7122901624     11353.6934634988         0.7826185736       344.4483424290      -561.7656130423       288.4976814639       302.2081926755         9.2223502012      2350.2750626597     -3099.8707752169      -412.0981248257       253.7347862589      -547.8468117531 
  151000       288.6133571661     11296.7296989574         0.7865649281       315.5960413996      -545.5658558008       295.2482785392       324.2852344660        10.4420652398      2341.6097815716     -3099.8927061546      -417.2585094628       246.5142393222      -419.3098179759 
  152000       301.4930099802     11227.7504181127         0.7913973016       274.5423883342      -625.0496992137       251.9416016845       306.0146776647         2.1030688133      2339.3414003916     -3100.2105816530      -424.2398661149        43.0368087148     -1413.8157749345 
  153000       295.5052281989     11143.8964633423         0.7973522917       281.2469280558      -600.4788709411       257.3608284459       329.0491802683        16.3157090946      2326.9550129615     -3099.8923013748      -430.2673003366       298.8433571330       108.2708597887 
  154000       307.6367452893     11317.5330773941         0.7851191000       353.8811756310      -564.0425331789       276.4455959052       320.4015228063         9.7383352902      2343.7833348642     -3098.2304689107      -416.1808531341       525.1557136718      1037.6840538488 
  155000       299.3664427454     11060.0794330430         0.8033948976       280.6320837561      -612.6147719131       265.0372383314       306.4716428379         5.3827861066      2344.1426792983     -3101.2590721011      -432.3900463861       822.4975285187      3359.3659896906 
  156000       297.2133157006     11540.6929715624         0.7699374210       268.9890058862      -617.8333689863       264.2112245205       307.5397623824        11.0342092002      2308.1333257020     -3100.2945774591      -408.4573133322        35.0795375629     -1389.7606959952 
  157000       292.1013280729     11293.4175483040         0.7867956131       288.6108818952      -582.9583910171       271.4469502702       315.7273844594         9.8517622827      2336.8573461229     -3098.7594172334      -418.0824169190       148.3104559596      -851.8393824618 
  158000       305.0108960486     11385.8084713226         0.7804111062       333.7784387058      -576.3102851396       273.3155625191       329.3410408317        17.2028965642      2310.8526029269     -3101.0962171202      -405.9261708614      -521.0449588999     -5147.9774691774 
  159000       296.1527390177     11336.9792760763         0.7837723936       273.4091947667      -610.2486410930       277.3733835907       297.5089714922         7.5047978249      2322.5679229690     -3099.8561683235      -415.3475486462       517.6642936973      1477.3057779761 
  160000       301.6368586827     11306.5146440191         0.7858842148       367.6900644235      -532.3312375683       270.6613219597       344.1203750769         9.2640423420      2361.2405843427     -3100.1388740730      -417.4786872166       525.5585539367       957.3942497028 
  161000       298.5637085925     11119.7316296470         0.7990850570       305.1459064296      -585.7057584114       278.6756894093       302.5603382559         9.1601303775      2344.0136178680     -3100.1512536985      -419.9642806236       504.6405830994      1230.1586257455 
  162000       293.7953427357     11201.1953874504         0.7932734924       257.7875011433      -618.8363572367       267.1965102998       316.4442630396         8.8021147899      2292.6836300470     -3099.6556226181      -404.3072527947       377.4232842281       732.3536229540 
  163000       292.1548105737     11327.0043316563         0.7844626102       335.1280160404      -536.6008374691       288.9263361868       330.7836712800        12.9939647132      2361.3447104106     -3100.2377864472      -430.4117336125       915.2310944364      3511.6741777050 
  164000       286.0581043650     11143.3977331532         0.7973879777       235.2874255877      -618.2501316598       271.2158139720       323.7982298159        15.4813185159      2303.3522600935     -3099.7496162453      -432.3481378118       708.0460653262      2909.0149504388 
  165000       300.5796313013     11524.1017398416         0.7710458988       317.8421466115      -579.0246099826       275.5456360865       320.9935729198        10.2992018896      2299.0286348664     -3099.9383345248      -384.9533212201        17.1968265635     -1788.8399059851 
  166000       295.8402324194     11063.3735730139         0.8031556853       256.7272638624      -625.9981176658       268.5554887245       298.6176125725         9.1305672657      2325.3506118094     -3100.4958310636      -427.1565669743       344.0186868437       541.0135052766 
  167000       296.2507817222     10982.4023923290         0.8090772006       277.1093214803      -606.8410533050       287.5205334414       311.1652932438         5.4882230325      2316.5581612329     -3099.7853180041      -427.7879462515       273.9944384553       -19.4477113751 
  168000       300.4262182226     11087.8128005792         0.8013854079       304.2757621022      -592.1332419496       275.4557939267       327.7024611875         7.8868780666      2323.4963939393     -3100.0154372282      -426.6593318415       303.1119459494        -7.1971840062 
  169000       298.2186892150     11532.4137274297         0.7704901674       321.5433181874      -568.2788809886       293.8853443918       313.6383809835        15.0253360132      2324.6096699747     -3100.5963793991      -414.8412329526      -131.0475257747     -2690.9749812547 
  170000       288.8049189309     11323.5211416171         0.7847039161       270.9262573481      -590.8072200956       272.9533315244       327.8767053030        12.1299809524      2322.2390185101     -3101.4082017735      -424.5980546119       326.5544254329       336.8506374673 
  171000       298.5298859183     10770.0274325658         0.8250314532       288.6186478589      -602.1320971960       269.4008463045       305.1133534341        11.5830649802      2356.6863557978     -3100.9245625774      -443.9911551351       697.1806839491      2601.1494788926 
  172000       300.8342099074     11422.8150838534         0.7778828002       318.6767668633      -578.9495990488       276.8455003685       331.6104453455        13.9837023101      2313.8106408375     -3099.9684012448      -415.2314866655       456.1663682469       825.3170498382 
  173000       294.6135280089     11815.1669868746         0.7520512739       349.2771545714      -529.7879975487       267.4698122611       329.0254340122        17.2651212041      2363.7967275173     -3100.0927393495      -407.2523531939       558.4160519816      1213.7215433519 
  174000       293.6186039387     11031.0219190598         0.8055111710       291.1717414613      -584.9247653117       269.5738751948       334.7482888124        13.9094945556      2296.7093091501     -3100.3229183170      -399.5428147077       513.4404582410      1381.6139361789 
  175000       299.7457133945     11304.5929664547         0.7860178080       320.5288127395      -573.8497072262       258.4924952097       324.2009968586        13.1289611564      2339.6998059679     -3100.5789513252      -408.7930150935       362.8347912399       256.6084333517 
  176000       306.7244243072     11245.2758439194         0.7901639326       374.9332407290      -540.2682930731       278.6848223939       340.4788472615        14.0465618247      2345.7810429738     -3100.5695237411      -418.6900437859       181.2966467034     -1180.7050820825 
  177000       294.2546413660     11472.0528008842         0.7745441498       286.9628744446      -591.0314349906       248.9266437243       330.3819215731         9.4092020913      2332.9035215503     -3098.6575801892      -413.9951437403       264.0431717576      -136.9909738732 
  178000       300.4886954770     11167.4605028901         0.7956698285       330.1288916021      -566.4665315105       262.6527668649       317.5643322561        15.0328171021      2370.4507531824     -3100.3021393454      -431.8650615705      -282.6717325212     -3762.6072190963 
  179000       301.5147040315     11357.9216288510         0.7823272315       316.4642522628      -583.1925657970       258.0060281972       330.9771072500         8.1421021261      2333.6985034975     -3099.9515639736      -414.0647428942        60.6362584493     -1544.4480620348 
  180000       304.4343326423     11113.5883076391         0.7995267719       305.5513604351      -602.8170187884       278.8064374655       314.8774244145        13.9075104719      2327.5280429701     -3100.7345014554      -437.2019326550       474.6608910768      1043.3689062895 
  181000       290.4699552722     11436.9177729647         0.7769236048       300.5951652669      -566.1064323933       266.1504794169       324.1124444840        11.8363410608      2361.9951486766     -3099.2701202383      -430.9307257932       168.9812211616      -789.0726958388 
  182000       298.4202203661     11055.4513166243         0.8037312208       281.9961952082      -608.4273307743       261.7971288077       300.3286433505        11.5240180772      2345.3600607603     -3099.5255610387      -427.9116207313       368.0480245472       533.7129508910 
  183000       300.9282151799     11377.5150916193         0.7809799690       314.9229567619      -582.9839012229       264.9025798917       307.9398286257        13.0598077605      2341.8584920302     -3099.4296741343      -411.3149353967       205.1910510994      -661.3168855961 
  184000       296.9609128642     11321.1678952587         0.7848670266       326.3818562529      -559.6874013435       271.5943890360       300.9830506464        20.1051425385      2362.6821982438     -3098.5994259571      -416.4527558511       633.0819109820      1857.5766058549 
  185000       296.4969939370     11081.9591676977         0.8018087099       284.5787269508      -600.1062935909       284.1861650065       285.1202282480        10.9807198983      2351.6339220912     -3101.0459671710      -430.9813616639       -56.9334544134     -2113.0694153419 
  186000       297.0086859192     11429.1133383258         0.7774541314       321.6201820391      -564.5916203622       268.8541738571       315.2690157412        13.1027291795      2331.2369565831     -3099.1874280758      -393.8670676472       176.7494458545      -869.1450041666 
  187000       294.0419317013     11406.2395369710         0.7790132195       297.5631537214      -579.7964745604       275.0524835614       304.0805379152        12.8022482171      2357.5661199384     -3099.1625446345      -430.1353195579       288.5166961678       -54.3826257377 
  188000       303.5797066651     11261.4348870377         0.7890301256       314.7493485366      -591.0690055075       276.5926808026       310.7183799961         6.5552841801      2327.8862224371     -3098.8515696087      -413.9700033147       274.1234884954      -247.3619799770 
  189000       300.3732979807     11315.0026540590         0.7852946796       331.7101466086      -564.5409545091       296.0489022221       316.5195376010        10.0127474301      2316.2903146716     -3099.1457164745      -404.2667399594       285.4399352840      -280.3954315563 
  190000       295.3964553852     11270.1723247348         0.7884184135       291.4097265410      -589.9915171284       269.9964506270       321.5932040518         9.7201154031      2320.3473322312     -3099.8311791154      -411.8174403261       628.6101144839      2051.5477024148 
  191000       292.7035995771     11146.4823479836         0.7971673131       271.3551620605      -602.0111630615       253.1632711801       318.9474472574        16.5779565039      2334.0661173386     -3100.6978058943      -424.0681494472       199.5971105562      -441.4249896540 
  192000       291.5213225525     11201.1430513749         0.7932771988       266.1752412820      -603.6634164599       271.1231113212       309.7084972764        12.2916624532      2328.3064603307     -3098.0309227320      -427.0622251093       288.9767935940       139.5809601219 
  193000       288.0449578131     10908.9390022508         0.8145257189       258.9379482026      -600.5279642037       256.6634779357       334.4724570772         5.3013499178      2339.1788351239     -3099.8190682190      -436.3250160392       375.3896747665       731.9603045591 
  194000       291.8292963672     10877.4788855831         0.8168815106       250.8583161751      -619.8992710200       259.3229715005       289.9319147625        15.9405499853      2338.9174941969     -3100.3446627482      -423.6675387171       375.7727928565       787.4239763362 
  195000       317.8224574453     11167.3963492750         0.7956743994       347.0297707533      -601.2859728905       264.3805085382       301.3194507283        10.8326346577      2337.4848169025     -3099.6449176157      -415.6584661015       260.5848304380      -530.7765889919 
  196000       285.3886154136     11108.7346093901         0.7998761061       297.7499889302      -553.7899533033       286.8789861990       325.8895763208        20.1977664557      2318.6600161161     -3100.3058489523      -405.1104494426       163.5113648218      -828.5848938286 
  197000       292.8917966366     11138.3864032432         0.7977467348       238.2364731380      -635.6913926499       264.2108252966       311.9593163424        10.5234073368      2311.1149444548     -3100.6798737961      -432.8200122843       662.5511790319      2612.1006931367 
  198000       303.3801497775     10877.6446451987         0.8168690625       276.8471737052      -628.3757443214       265.3251950347       326.9259149163        11.2080713456      2274.6772695173     -3100.6513001717      -405.8608949636       687.5606696583      2588.9771504019 
  199000       281.8418611275     11360.1935651695         0.7821707731       240.3930135498      -600.5641556617       264.2759514321       317.2320774327        11.4306637866      2327.9999972802     -3100.6979795437      -420.8048660495       563.7949717649      1952.0054438765 
  200000       300.0028950908     11322.7468038304         0.7847575803       314.0716131559      -581.0742832047       245.3680836874       346.6961006875         8.1378130239      2328.3813146531     -3099.2795030694      -410.3780921872       -92.2145378524     -2460.3921551670 
  201000       298.5694569307     11250.7583211767         0.7897788869       311.4873415465      -579.3814751335       270.3447904767       340.6989001975        12.6749948757      2308.9238483539     -3099.7589551552      -412.2650538821       150.1215776057      -983.4532351353 
  202000       287.3130629635     11312.0680859118         0.7854984001       278.3881622711      -578.8939289725       277.1343469630       343.6907729151         5.4395662817      2288.9510214165     -3100.4417221911      -393.6679143576       677.9052522426      2421.6839411418 
  203000       296.6741302127     11179.2118999834         0.7948334340       307.4774484233      -577.7361097185       260.2189297787       339.8417284273        15.7577520956      2323.9943495825     -3100.0817673763      -417.4671022264       571.2558896368      1617.9020298569 
  204000       295.0767863006     11449.9806224248         0.7760372420       286.6561587671      -593.7912592096       240.1481193341       319.6155514882         9.1968700365      2354.2551470004     -3099.9565691518      -417.0503779171       380.0261225493       559.1477083042 
  205000       301.0672416658     11228.4039083015         0.7913512425       330.6633637073      -567.6583202356       285.6021303281       338.0192752985        10.2849045877      2303.9106445223     -3099.0384843502      -406.4367906221       365.1376592906       210.5239378356 
  206000       292.6618376864     11164.8256296600         0.7958576048       300.2141556117      -573.0275607625       296.7767023054       307.1088899766        12.5581752367      2334.1561528557     -3100.8997834248      -422.7276977121        56.7977075254     -1494.9342321893 
  207000       295.3329302435     11301.4968398454         0.7862331432       347.0324550973      -534.1792428349       266.4370512010       349.8439551737        11.4215585804      2340.5228000337     -3097.7891413519      -404.6154664719       547.3737953500      1215.5105075698 
  208000       307.9055614813     11125.2912511556         0.7986857317       362.3414770920      -556.3843230145       291.2848036997       321.0670751433        13.6132946191      2327.4298088839     -3100.1654415599      -409.6138638007       137.3390847229     -1386.7553727509 
  209000       295.8623299202     11206.0727171888         0.7929282281       294.4014206953      -588.3898951536       261.9359620649       330.5930374080        10.5433622472      2306.4813075717     -3099.6094043404      -398.3341601051       453.0516228743       970.7587285382 
  210000       296.8920892685     11333.3367152673         0.7840242999       302.8162883472      -583.0476140332       254.3267082993       336.4910281140         7.3053629404      2330.2979526286     -3098.5687017677      -412.8999642478       565.3628465754      1588.4467049462 
Loop time of 61.6177 on 64 procs for 100000 steps with 1002 atoms

Performance: 140.219 ns/day, 0.171 hours/ns, 1622.910 timesteps/s
99.3% CPU use with 64 MPI tasks x no OpenMP threads

MPI task timing breakdown:
Section |  min time  |  avg time  |  max time  |%varavg| %total
---------------------------------------------------------------
Pair    | 12.38      | 18.702     | 25.77      |  94.2 | 30.35
Bond    | 0.47542    | 0.51034    | 0.5513     |   2.2 |  0.83
Kspace  | 16.556     | 23.548     | 29.95      |  83.5 | 38.22
Neigh   | 1.5576     | 1.6159     | 1.634      |   0.8 |  2.62
Comm    | 13.169     | 13.904     | 15.517     |  12.8 | 22.56
Output  | 0.049168   | 0.049209   | 0.050103   |   0.1 |  0.08
Modify  | 2.0186     | 2.5072     | 3.1689     |  23.3 |  4.07
Other   |            | 0.7809     |            |       |  1.27

Nlocal:    15.6562 ave 24 max 7 min
Histogram: 1 2 8 3 20 12 7 5 5 1
Nghost:    4692.59 ave 4792 max 4551 min
Histogram: 1 0 4 7 6 11 16 13 2 4
Neighs:    11878.1 ave 21851 max 6876 min
Histogram: 13 9 11 9 6 6 6 1 1 2

Total # of neighbors = 760199
Ave neighs/atom = 758.682
Ave special neighs/atom = 5
Neighbor list builds = 3775
Dangerous builds = 0
unfix equil
undump equil

# WRITE RESTART FILES, CLEANUP, AND EXIT
write_restart   md-14.end.restart
PPPM initialization ...
WARNING: Using 12-bit tables for long-range coulomb (../kspace.cpp:321)
  G vector (1/distance) = 0.186222
  grid = 8 8 8
  stencil order = 5
  estimated absolute RMS force accuracy = 0.00739865
  estimated relative force accuracy = 2.22808e-05
  using double precision FFTs
  3d grid and FFT values/proc = 343 8
write_data      md-14.end.data pair ii
PPPM initialization ...
WARNING: Using 12-bit tables for long-range coulomb (../kspace.cpp:321)
  G vector (1/distance) = 0.186222
  grid = 8 8 8
  stencil order = 5
  estimated absolute RMS force accuracy = 0.00739865
  estimated relative force accuracy = 2.22808e-05
  using double precision FFTs
  3d grid and FFT values/proc = 343 8
unfix		averages
Total wall time: 0:03:27
