
#===========================================================
# GENERAL PROCEDURES
#===========================================================
units		real	# g/mol, angstroms, fs, kcal/mol, K, atm, charge*angstrom
dimension	3	# 3 dimensional simulation
newton		on	# use Newton's 3rd law
boundary	p p p	# periodic boundary conditions
atom_style	full    # molecular + charge

#===========================================================
# FORCE FIELD DEFINITION
#===========================================================
special_bonds  lj   0.0 0.0 0.0  coul 0.0 0.0 0.0     # NO     1-4 LJ/COUL interactions
pair_style     hybrid lj/cut/coul/long 14.0 14.0 # outer_LJ outer_Coul (cutoff values, see LAMMPS Doc)
kspace_style   pppm 0.0001          # long-range electrostatics sum method
bond_style     harmonic             # parameters needed: k_bond, r0
angle_style    harmonic             # parameters needed: k_theta, theta0
dihedral_style hybrid opls            # parameters needed: V1, V2, V3, V4
pair_modify    shift yes mix arithmetic       # using Lorenz-Berthelot mixing rules

#===========================================================
# SETUP SIMULATIONS
#===========================================================

# READ IN COEFFICIENTS/COORDINATES/TOPOLOGY
read_data ${data_name}
read_data md-10.data
  orthogonal box = (-11.1611 -11.1611 -11.1611) to (11.1611 11.1611 11.1611)
  4 by 4 by 4 MPI processor grid
  reading atoms ...
  1002 atoms
  reading velocities ...
  1002 velocities
  scanning bonds ...
  1 = max bonds/atom
  scanning angles ...
  6 = max angles/atom
  scanning dihedrals ...
  3 = max dihedrals/atom
  reading bonds ...
  835 bonds
  reading angles ...
  1169 angles
  reading dihedrals ...
  501 dihedrals
  4 = max # of 1-2 neighbors
  3 = max # of 1-3 neighbors
  4 = max # of 1-4 neighbors
  5 = max # of special neighbors
include ${settings_name}
include md-10.in.settings
     # Non-bonded interactions (pair-wise)
     pair_coeff           1          1          lj/cut/coul/long     0.011105             2.467637
     pair_coeff           1          2          lj/cut/coul/long     0.002176             2.246317
     pair_coeff           1          3          lj/cut/coul/long     0.030833             3.123433
     pair_coeff           1          4          lj/cut/coul/long     0.041875             2.729296
     pair_coeff           2          2          lj/cut/coul/long     0.001000             1.774041
     pair_coeff           2          3          lj/cut/coul/long     0.003841             3.066333
     pair_coeff           2          4          lj/cut/coul/long     0.006107             2.609888
     pair_coeff           3          3          lj/cut/coul/long     0.200406             3.431001
     pair_coeff           3          4          lj/cut/coul/long     0.177085             3.220692
     pair_coeff           4          4          lj/cut/coul/long     0.198848             2.904910

     # Stretching interactions
     bond_coeff           1           366.904251           1.096103
     bond_coeff           2           612.219900           0.957501
     bond_coeff           3           368.709924           1.411527

     # Bending interactions
     angle_coeff          1           40.926667            108.205025
     angle_coeff          2           61.328715            112.232133
     angle_coeff          3           49.873049            108.741688

     # Dihedral interactions
     dihedral_coeff       1          opls                  0.105414            -0.205941             0.372587            -0.070860

# SET RUN PARAMETERS
timestep	1.0		# fs
run_style	verlet 		# Velocity-Verlet integrator
neigh_modify every 1 delay 0 check no one 10000 # More relaxed rebuild criteria can be used

#===========================================================
# RUN CONSTRAINED RELAXATION
#===========================================================

# SET OUTPUTS
thermo_style    custom step temp vol density etotal pe ebond eangle edihed ecoul elong evdwl enthalpy press
thermo_modify   format float %20.10f
thermo ${thermo_freq}
thermo 1000

# DECLARE RELEVANT OUTPUT VARIABLES
variable        my_step equal   step
variable        my_temp equal   temp
variable        my_rho  equal   density
variable        my_pe   equal   pe
variable        my_ebon equal   ebond
variable        my_eang equal   eangle
variable        my_edih equal   edihed
variable        my_evdw equal   evdwl
variable        my_eel  equal   (ecoul+elong)
variable        my_ent  equal   enthalpy
variable        my_P    equal   press
variable        my_vol  equal   vol

fix  averages all ave/time ${dump4avg} $(v_avg_freq/v_dump4avg) ${avg_freq} v_my_temp v_my_rho v_my_vol v_my_pe v_my_edih v_my_evdw v_my_eel v_my_ent v_my_P file thermo.avg
fix  averages all ave/time 100 $(v_avg_freq/v_dump4avg) ${avg_freq} v_my_temp v_my_rho v_my_vol v_my_pe v_my_edih v_my_evdw v_my_eel v_my_ent v_my_P file thermo.avg
fix  averages all ave/time 100 10 ${avg_freq} v_my_temp v_my_rho v_my_vol v_my_pe v_my_edih v_my_evdw v_my_eel v_my_ent v_my_P file thermo.avg
fix  averages all ave/time 100 10 1000 v_my_temp v_my_rho v_my_vol v_my_pe v_my_edih v_my_evdw v_my_eel v_my_ent v_my_P file thermo.avg

# INITIALIZE VELOCITIES AND CREATE THE CONSTRAINED RELAXATION FIX
velocity        all create ${ANNEAL_TEMP} ${vseed} mom yes rot yes     # DRAW VELOCITIES
velocity        all create 100.0 ${vseed} mom yes rot yes     
velocity        all create 100.0 97343 mom yes rot yes     

fix relax all nve/limit 0.01
run             10000
PPPM initialization ...
WARNING: Using 12-bit tables for long-range coulomb (../kspace.cpp:321)
  G vector (1/distance) = 0.186605
  grid = 8 8 8
  stencil order = 5
  estimated absolute RMS force accuracy = 0.00726209
  estimated relative force accuracy = 2.18696e-05
  using double precision FFTs
  3d grid and FFT values/proc = 343 8
Neighbor list info ...
  update every 1 steps, delay 0 steps, check no
  max neighbors/atom: 10000, page size: 100000
  master list distance cutoff = 16
  ghost atom cutoff = 16
  binsize = 8, bins = 3 3 3
  1 neighbor lists, perpetual/occasional/extra = 1 0 0
  (1) pair lj/cut/coul/long, perpetual
      attributes: half, newton on
      pair build: half/bin/newton
      stencil: half/bin/3d/newton
      bin: standard
Per MPI rank memory allocation (min/avg/max) = 8.559 | 8.668 | 9.16 Mbytes
Step Temp Volume Density TotEng PotEng E_bond E_angle E_dihed E_coul E_long E_vdwl Enthalpy Press 
       0       100.0000000000     11122.7053420714         0.7988714175      -296.3011100069      -594.6801960119       245.0019006903       322.3151090183        11.6461319791      2333.1190662317     -3103.6008230779      -403.1615808534      -652.9574688231     -2198.6882212189 
    1000        23.7781476830     11122.7053420714         0.7988714175     -1400.9659247324     -1471.9149444579         9.0053994315        18.4229037998       -35.4895044147      2083.9783584182     -3106.5156006277      -441.3165010649     -1791.5331218892     -2407.7391998093 
    2000        19.7590157661     11122.7053420714         0.7988714175     -1445.5453308886     -1504.5021015352         8.8777268841        17.1957308140       -37.1555789744      2054.9084917791     -3106.5614115641      -441.7670604739     -1831.9945577454     -2382.3530470880 
    3000        17.1950475867     11122.7053420714         0.7988714175     -1466.9832940348     -1518.2897198622         9.0113674299        17.1723926194       -36.6616044230      2044.0322696040     -3106.7246980317      -445.1194470607     -1913.0497344095     -2749.8767485547 
    4000        15.9756428715     11122.7053420714         0.7988714175     -1483.1659466369     -1530.8339238204         8.5969285550        17.4737356965       -36.4918884618      2035.3096885590     -3106.5474677217      -449.1749204475     -1860.4277461780     -2325.7150881034 
    5000        14.2097911898     11122.7053420714         0.7988714175     -1494.9782916806     -1537.3773367561         8.5118710647        17.1558498666       -37.7953246566      2031.8418457879     -3106.3774803047      -450.7140985141     -1874.8382714402     -2341.7321535550 
    6000        15.1994392632     11122.7053420714         0.7988714175     -1504.2766198355     -1549.6285677868         8.4756855972        16.7369402151       -37.3062178008      2039.1845878548     -3106.2925484445      -470.4270152086     -1900.0549088873     -2439.8641460945 
    7000        13.5236566532     11122.7053420714         0.7988714175     -1512.8261514649     -1553.1779145812         8.3913981731        16.3886543746       -37.3107434771      2032.8752323072     -3106.6375188503      -466.8849371086     -1814.8060566832     -1861.6229438669 
    8000        12.4379854607     11122.7053420714         0.7988714175     -1522.3729044877     -1559.4852518228         8.6929092533        16.5785226936       -36.5666076387      2035.7853445662     -3105.7031890359      -478.2722316613     -1904.1139970059     -2353.3286956128 
    9000        12.5041116243     11122.7053420714         0.7988714175     -1528.5902096330     -1565.8998636105         8.1789513466        16.8990901195       -38.2797277794      2031.4954406044     -3105.8091324409      -478.3844854606     -1846.3337727399     -1958.8015530973 
   10000        12.1485682718     11122.7053420714         0.7988714175     -1533.0915149531     -1569.3403019251         8.3090477645        17.1382083571       -37.8303015131      2021.3966258855     -3105.8150747048      -472.5388077143     -1807.8383547779     -1693.7385962917 
Loop time of 12.8698 on 64 procs for 10000 steps with 1002 atoms

Performance: 67.134 ns/day, 0.357 hours/ns, 777.011 timesteps/s
98.9% CPU use with 64 MPI tasks x no OpenMP threads

MPI task timing breakdown:
Section |  min time  |  avg time  |  max time  |%varavg| %total
---------------------------------------------------------------
Pair    | 0.55447    | 1.9758     | 3.7684     |  50.2 | 15.35
Bond    | 0.02057    | 0.048879   | 0.080409   |   5.8 |  0.38
Kspace  | 1.0212     | 2.8307     | 4.2569     |  42.1 | 21.99
Neigh   | 4.5981     | 4.7153     | 4.8257     |   3.3 | 36.64
Comm    | 3.0759     | 3.191      | 3.3104     |   4.1 | 24.79
Output  | 0.0015936  | 0.001939   | 0.0019593  |   0.1 |  0.02
Modify  | 0.0082874  | 0.010069   | 0.011634   |   0.6 |  0.08
Other   |            | 0.0962     |            |       |  0.75

Nlocal:    15.6562 ave 24 max 0 min
Histogram: 1 2 5 2 4 5 10 21 11 3
Nghost:    4747.47 ave 5135 max 4454 min
Histogram: 8 6 7 7 8 12 5 8 2 1
Neighs:    12058.5 ave 24118 max 0 min
Histogram: 2 4 8 8 11 6 16 3 3 3

Total # of neighbors = 771742
Ave neighs/atom = 770.202
Ave special neighs/atom = 5
Neighbor list builds = 10000
Dangerous builds not checked
unfix relax

#===========================================================
# RUN RAMPED ANNEAL
#===========================================================

# REINITIALIZE THE VELOCITIES AND CREATE THE ANNEALING FIX
velocity        all create ${ANNEAL_TEMP} ${vseed} mom yes rot yes     # DRAW VELOCITIES
velocity        all create 100.0 ${vseed} mom yes rot yes     
velocity        all create 100.0 97343 mom yes rot yes     

fix mom all momentum 1000 linear 1 1 1 angular # Zero out system linear and angular momentum every ps
fix anneal all npt temp ${ANNEAL_TEMP} ${FINAL_TEMP} 100.0 iso ${pressure} ${pressure} 1000.0 # NPT, nose-hoover 100 fs T relaxation
fix anneal all npt temp 100.0 ${FINAL_TEMP} 100.0 iso ${pressure} ${pressure} 1000.0 
fix anneal all npt temp 100.0 298.0 100.0 iso ${pressure} ${pressure} 1000.0 
fix anneal all npt temp 100.0 298.0 100.0 iso 1.0 ${pressure} 1000.0 
fix anneal all npt temp 100.0 298.0 100.0 iso 1.0 1.0 1000.0 

# CREATE COORDINATE DUMPS FOR ANNEAL
dump anneal all custom ${coords_freq} anneal.lammpstrj id type x y z mol
dump anneal all custom 1000 anneal.lammpstrj id type x y z mol
dump_modify anneal sort id format float %20.10g

# RUN RAMPED ANNEAL
run ${nSteps_ramp}
run 50000
PPPM initialization ...
WARNING: Using 12-bit tables for long-range coulomb (../kspace.cpp:321)
  G vector (1/distance) = 0.186605
  grid = 8 8 8
  stencil order = 5
  estimated absolute RMS force accuracy = 0.00726209
  estimated relative force accuracy = 2.18696e-05
  using double precision FFTs
  3d grid and FFT values/proc = 343 8
Per MPI rank memory allocation (min/avg/max) = 9.83 | 10.36 | 10.54 Mbytes
Step Temp Volume Density TotEng PotEng E_bond E_angle E_dihed E_coul E_long E_vdwl Enthalpy Press 
   10000       100.0000000000     11122.7053420714         0.7988714175     -1270.9612159201     -1569.3403019251         8.3090477645        17.1382083571       -37.8303015131      2021.3966258855     -3105.8150747048      -472.5388077143     -1370.9545230563      -616.4311981727 
   11000        90.5632496385     10100.6055691587         0.8797107582     -1015.2303940092     -1285.4521905371       109.5836992230       103.6360504069       -15.6381539629      2109.6055053574     -3105.5873509355      -487.0519406260     -1869.6337033970     -5800.1552772600 
   12000       111.9971549199      9861.9912027392         0.9009956713      -968.9160242537     -1303.0921114552        85.3558576770       103.8837821677       -21.1898403698      2130.5547155863     -3105.3829340053      -496.3136925112      -619.3514737860      2430.4510796058 
   13000       114.4192276123      9749.8522339993         0.9113585694      -962.0888550620     -1303.4919006257        86.0289843979       107.2582796406       -11.9277462802      2109.7416284494     -3105.2540969318      -489.3389499016      -911.7056364645       354.3333128457 
   14000       114.1415211036      9631.5542547151         0.9225521809      -929.4557349620     -1270.0301623832        93.9866161463       119.4200257752        -7.1464056346      2133.5316326073     -3105.9197312895      -503.9022999880     -1020.7741232078      -650.1086924057 
   15000       114.2252293672      9682.1073939351         0.9177352638      -928.4615779255     -1269.2857732984        96.5739086328       122.7674094450        -9.8365836766      2112.4059942281     -3105.9992143615      -485.1972875660     -1171.4030123538     -1720.5044747813 
   16000       125.0473507530      9554.7483974386         0.9299681178      -896.7327487352     -1269.8478909855        97.6843464937       122.5316330398       -14.5104077600      2137.1674235206     -3105.9890395241      -506.7318467556      -941.1536459082      -318.7808182214 
   17000       125.7747548075      9667.0983949030         0.9191601265      -878.7978803287     -1254.0834441483       103.9697098704       125.1260049982       -15.3192605647      2131.4950282424     -3106.4302146711      -492.9247120234      -881.9677127092       -22.4835181428 
   18000       127.0201514881      9597.8491298021         0.9257919419      -864.0556752591     -1243.0572423114       104.0548306034       135.4335292516       -14.9344078662      2137.5916476703     -3105.8376834448      -499.3651585257     -1107.4676998952     -1738.9705230329 
   19000       140.1836257803      9651.2863291741         0.9206660211      -830.9490457370     -1249.2276670690       107.5602482036       122.9553312697        -9.3396961449      2135.8619202174     -3105.7898533695      -500.4756172453      -804.0314267511       191.2385983052 
   20000       138.2600796217      9649.1718131706         0.9208677756      -799.6351382172     -1212.1743001022       114.9579076920       142.7544593772       -10.5773699020      2132.9066333039     -3105.6981998356      -486.5177307377      -757.7114696350       297.9156720727 
   21000       150.7259562450      9734.5468165297         0.9127914787      -770.8262503371     -1220.5609809533       111.1802905471       144.7984794781       -14.2609437693      2131.1279520337     -3105.7804039443      -487.6263552986      -722.1719380651       342.7123150449 
   22000       149.0191381224      9759.6666875321         0.9104420948      -759.7588625939     -1204.4008048961       120.4605960147       150.9918751242         0.3648178506      2123.2574111579     -3105.3605100389      -494.1149950046     -1032.2392918236     -1914.3636508269 
   23000       149.7840504962      9613.0990391233         0.9243232955      -740.9388530548     -1187.8631339066       119.7392381090       147.3671740714        -0.3830370884      2143.0254377067     -3105.9156421781      -491.6963045272      -552.1119742875      1346.8663678359 
   24000       153.1270575586      9805.6381973988         0.9061736936      -711.8577731837     -1168.7568879535       131.6254578726       156.0979776347        -7.4595536799      2138.0575426355     -3106.5174129735      -480.5608994429      -554.6739014029      1099.1481364709 
   25000       159.4907838254      9945.8143519908         0.8934020955      -682.3004588038     -1158.1876018443       128.9701436819       158.9050615895        -5.9167157359      2147.5625194448     -3105.9753391552      -481.7332716694      -820.0823087769      -949.8953764943 
   26000       160.7705964156      9929.3159875493         0.8948865556      -652.1190319901     -1131.8248681397       137.9654843255       167.4024721176        -7.8380934326      2149.7251580915     -3106.4052853583      -472.6746038834      -615.0345408791       256.0926432144 
   27000       172.7762658482      9845.6288791751         0.9024930243      -610.2767403513     -1125.8049832228       132.7707008864       171.6638449546        -7.0024914963      2161.8279592717     -3104.4975554484      -480.5674413909      -589.0994084676       147.4863717711 
   28000       185.7495881110      9998.1374361575         0.8887266694      -545.1454194272     -1099.3833426907       146.6830285312       183.0960607624         1.1264616714      2147.4913443769     -3106.2138113705      -471.5664266621      -359.4872834163      1273.2655656524 
   29000       177.8641453090     10064.4377310937         0.8828721108      -554.5631458934     -1085.2725569969       146.1699343866       170.7323407937         1.8500309644      2178.7954111928     -3105.0846093593      -477.7356649751      -526.6982520183       189.8418628249 
   30000       172.0565761143     10109.3343255777         0.8789511849      -574.4981620732     -1087.8790012945       137.5583612765       192.1925598986        -2.1238410071      2157.8276592916     -3106.0685460476      -467.2651947066      -908.2267323469     -2263.5752629119 
   31000       179.7593985376     10062.8140183157         0.8830145690      -541.8670654369     -1078.2315158016       146.1405941979       197.4438576937        -3.2522177366      2145.8323563138     -3106.1418225991      -458.2542836713      -294.8950107795      1682.8774045039 
   32000       192.3002185055      9966.0560257706         0.8915875408      -493.2870175490     -1067.0706519113       149.6115487651       197.4053926307        -3.7623178946      2155.7659133330     -3105.5544842506      -460.5367044948      -237.0784979307      1762.7647340427 
   33000       188.3080787235      9985.2216533217         0.8898762283      -443.1150033359     -1004.9869275047       168.6660181419       208.3623206650        -3.2187360012      2189.6745276479     -3105.7039311351      -462.7671268233      -372.5186726109       484.7842812807 
   34000       193.5051252064      9985.4771224248         0.8898534616      -443.1019825863     -1020.4808065499       168.7716046606       204.0588215527        -1.4616362591      2186.6602473099     -3105.4957123900      -473.0141314240      -482.8039943073      -272.6263334890 
   35000       209.7005325812     10278.0687453440         0.8645214975      -371.5734200022      -997.2759524656       174.8797974602       208.4299595866        -0.8915645829      2202.2003385292     -3105.3203419349      -476.5741415237      -615.5116236029     -1627.3928880292 
   36000       198.3274339593     10032.6042075375         0.8856734702      -398.4436801951      -990.2112649400       156.4592579875       230.3288615512        -2.7808653984      2204.8491165683     -3104.9835002012      -474.0841354474      -347.3738140895       349.0399601823 
   37000       202.9559968157     10023.9804878294         0.8864354230      -356.1248127632      -961.7030610541       184.1603871315       231.1337557654        -2.1040842199      2205.4604239776     -3105.8847589493      -474.4687847593      -494.5753131483      -947.0620357740 
   38000       210.7516650077     10121.6046140210         0.8778856439      -346.6769700477      -975.5158618380       180.9060626373       226.7286963796         4.4494859462      2188.7480439374     -3106.1075254147      -470.2406253238      -342.2744154497        29.8249341135 
   39000       216.3553444224     10420.8669412445         0.8526748718      -303.2557461015      -948.8148453121       178.1656310222       229.9764667204        -4.1548819186      2205.3849326276     -3104.2900608728      -453.8969328908      -317.3463507823       -92.7149760961 
   40000       208.5438087760     10173.8094420315         0.8733809528      -317.6539350681      -939.9050456139       197.4196619202       229.8604584001        -1.9934412653      2207.1347264683     -3105.2054135414      -467.1210375958      -533.7108975424     -1456.1589295523 
   41000       214.2119202616     10415.5355686182         0.8531113283      -274.9416364917      -914.1052062822       174.9175018526       243.8142633946         2.2673015325      2212.6107228763     -3105.2133799382      -442.5016160000      -277.2300395072       -15.0652039562 
   42000       237.1742144991     10417.6821837945         0.8529355404      -180.0563506398      -887.7346041016       204.4747269631       224.5006059790         7.4754715232      2228.1936299621     -3104.5928530692      -447.7861854598       -76.6117801476       680.8645257041 
   43000       226.3940609165     10352.9258484063         0.8582705521      -220.0125938927      -895.5251236250       193.1864564807       252.9691238435         7.8484323365      2209.5964125817     -3105.3622637882      -453.7632850792      -337.4182708063      -777.5889923142 
   44000       239.4856088758     10306.4547400234         0.8621404360      -150.6834243979      -865.2583952750       200.3586783336       260.6008611789         8.8148656755      2227.3015497061     -3105.8947695719      -456.4395805970        83.2386078070      1556.2735573447 
   45000       238.7209797965     10654.3763778954         0.8339869992      -115.0280244389      -827.3215020577       196.1202332448       277.1002293249         0.9997700151      2236.3687853863     -3104.3217136356      -433.5888063933       225.5837676438      2192.0767471548 
   46000       231.1339706096     11042.9575153316         0.8046405477      -125.1579595022      -814.8133884543       217.9473161272       272.0257494317         0.4420733560      2196.7488506413     -3104.1604856734      -397.8168923370       -27.5809691876       605.8793178415 
   47000       251.6122981017     10655.3103648251         0.8339138964       -77.1377189442      -827.8961942962       212.1035522751       267.0927174453         4.8088304033      2225.9011183195     -3104.9312772209      -432.8711355186       482.9087822185      3603.9776971480 
   48000       249.2996233862     10923.0730951546         0.8134717498       -55.5775952982      -799.4355329719       215.1942324815       258.8438122139         9.5200222567      2264.7629602879     -3105.0561516859      -442.7004085259      -430.5270777929     -2353.7049963658 
   49000       263.9074550465     10877.4522226284         0.8168835130        -1.4991444449      -788.9437967117       219.5463984374       273.1457535463         8.8303207719      2253.6253324312     -3104.6099914205      -439.4816104779        -5.1033082196       -22.7196398907 
   50000       258.1232658798     10602.7733973583         0.8380459575       -12.3671200161      -782.5529615145       225.4731576202       270.0320082640         5.7588360838      2255.8776908438     -3105.5331404823      -434.1615138440      -244.0374937079     -1498.2184124069 
   51000       270.8469814847     10722.5166436342         0.8286871151        93.1811804542      -714.9695673721       262.1988190907       271.6525638290         7.8270058081      2280.1723723473     -3104.5065615067      -432.3137669405       234.0379763976       900.7519000259 
   52000       266.7415403582     11072.8951021594         0.8024650556        66.8989944092      -729.0019757073       234.3113850202       291.4051253044        10.0142833763      2276.8075487496     -3105.5255699706      -436.0147481873       108.9007218183       260.0938462012 
   53000       280.2680727895     10750.9096532913         0.8264985634        98.5143836531      -737.7469303002       230.7932488517       290.9203289470        10.0339855372      2265.8776119089     -3106.5943878033      -428.7777177417       277.7415763294      1143.0962516699 
   54000       261.1667535363     11112.7910941967         0.7995841286       105.9969974417      -673.2699747090       249.3567733887       305.4429881914        12.7068620800      2281.5791116708     -3104.7400771158      -417.6156329242      -111.6206098823     -1342.7494752504 
   55000       293.9934847888     11103.1371264151         0.8002793519       162.5639237436      -714.6511490836       233.0277492894       301.6048997392        -2.1355373056      2274.9403205944     -3105.4580999867      -416.6304814142       418.4830669913      1580.4515265245 
   56000       282.3902093738     10873.9112954717         0.8171495189       216.7600140404      -625.8333116568       266.3450912527       313.0635524664        11.1387688455      2309.8217257223     -3104.0178968623      -422.1845530814       613.5944840562      2502.3480408265 
   57000       278.0413026986     10743.9047266529         0.8270374328       160.7399278897      -668.8771698189       265.9175838323       308.7950426037         6.6070395888      2301.1776464889     -3104.7965381293      -446.5779442033       560.6647990117      2552.3508658716 
   58000       288.8810829384     10968.5420478042         0.8100995871       181.7072401142      -680.2534947988       244.5790222594       295.7774738139         8.0386824968      2328.9520535959     -3103.9054141246      -453.6953128402       336.3587318808       966.7837002950 
   59000       308.9051210950     11323.4354447477         0.7847098548       320.1501043197      -601.5581726263       272.1016626017       320.1485533872        16.6741719588      2310.3697764897     -3104.5167212700      -416.3356157937      -243.7082275239     -3414.4118441539 
   60000       296.4452965769     11169.9931309463         0.7954894224       236.6896337177      -647.8411327132       237.0476376723       331.9032027165        12.2571780371      2310.9587534688     -3104.9904429939      -435.0174616141      -378.1105630355     -3774.0287338457 
Loop time of 65.9771 on 64 procs for 50000 steps with 1002 atoms

Performance: 65.477 ns/day, 0.367 hours/ns, 757.838 timesteps/s
99.4% CPU use with 64 MPI tasks x no OpenMP threads

MPI task timing breakdown:
Section |  min time  |  avg time  |  max time  |%varavg| %total
---------------------------------------------------------------
Pair    | 7.3958     | 11.653     | 16.229     |  72.4 | 17.66
Bond    | 0.23357    | 0.28395    | 0.33608    |   3.3 |  0.43
Kspace  | 7.6379     | 12.222     | 16.464     |  70.5 | 18.52
Neigh   | 22.598     | 22.991     | 23.182     |   3.7 | 34.85
Comm    | 16.761     | 16.968     | 17.421     |   4.7 | 25.72
Output  | 0.029678   | 0.029719   | 0.03009    |   0.0 |  0.05
Modify  | 1.0799     | 1.1363     | 1.1789     |   2.2 |  1.72
Other   |            | 0.6939     |            |       |  1.05

Nlocal:    15.6562 ave 22 max 7 min
Histogram: 3 0 6 3 9 7 17 4 11 4
Nghost:    4765.84 ave 4821 max 4685 min
Histogram: 4 0 3 6 6 12 9 11 8 5
Neighs:    12047.1 ave 21008 max 5555 min
Histogram: 4 7 10 12 11 5 8 1 4 2

Total # of neighbors = 771016
Ave neighs/atom = 769.477
Ave special neighs/atom = 5
Neighbor list builds = 50000
Dangerous builds not checked
unfix anneal

# RUN EQUILIBRATION PHASE AT FINAL TEMP
fix anneal all npt temp ${FINAL_TEMP} ${FINAL_TEMP} 100.0 iso ${pressure} ${pressure} 1000.0 # NPT, nose-hoover 100 fs T relaxation
fix anneal all npt temp 298.0 ${FINAL_TEMP} 100.0 iso ${pressure} ${pressure} 1000.0 
fix anneal all npt temp 298.0 298.0 100.0 iso ${pressure} ${pressure} 1000.0 
fix anneal all npt temp 298.0 298.0 100.0 iso 1.0 ${pressure} 1000.0 
fix anneal all npt temp 298.0 298.0 100.0 iso 1.0 1.0 1000.0 
run ${nSteps_ramp}
run 50000
PPPM initialization ...
WARNING: Using 12-bit tables for long-range coulomb (../kspace.cpp:321)
  G vector (1/distance) = 0.186518
  grid = 8 8 8
  stencil order = 5
  estimated absolute RMS force accuracy = 0.00729276
  estimated relative force accuracy = 2.19619e-05
  using double precision FFTs
  3d grid and FFT values/proc = 343 8
Per MPI rank memory allocation (min/avg/max) = 10.43 | 10.54 | 10.55 Mbytes
Step Temp Volume Density TotEng PotEng E_bond E_angle E_dihed E_coul E_long E_vdwl Enthalpy Press 
   60000       296.4452965769     11169.9931309463         0.7954894224       236.6898969525      -647.8408694784       237.0476376723       331.9032027165        12.2571780371      2309.5219821045     -3103.5534083947      -435.0174616141      -378.1089573740     -3774.0204931906 
   61000       297.6220034515     11366.0998190101         0.7817643277       265.6635756715      -622.3782379767       270.9038467304       310.9606991633         9.0822993369      2324.9573497835     -3103.9540762035      -434.3283567873      -360.1383552564     -3775.2832713906 
   62000       303.9382918060     11187.5805844574         0.7942388720       293.3855843392      -613.5027127709       271.1507391635       314.4410109585         2.3089197789      2337.2883435149     -3102.6496359351      -436.0420902515       433.1989959726       856.9130706209 
   63000       296.4748714035     10921.3985204033         0.8135964791       280.0905543652      -604.5284571631       275.5626015377       314.7609041023        15.3019364157      2331.0842577788     -3102.0992795168      -439.1388774807       165.0643557778      -722.1752878884 
   64000       295.7006728402     11162.3897915039         0.7960312755       275.5400594619      -606.7689054692       251.2354130048       324.9149447805         8.7643230161      2317.9141218391     -3104.5628985644      -405.0348095451       322.9187410293       291.0381343550 
   65000       295.8600760662     11134.2367757319         0.7980440476       238.5909822475      -644.1936085724       279.1508105035       294.5736620425         3.8565283426      2297.4962092434     -3103.1902695705      -416.0805491339       350.2947071665       687.9095102402 
   66000       296.2003303065     11151.3872040111         0.7968166849       292.6543935292      -591.1454447831       270.8121747781       321.1215115180        10.8610704855      2333.3198219664     -3104.1791492577      -423.0808742734       424.8602701201       812.9165677487 
   67000       299.6569516455     10962.5810666864         0.8105400845       285.3270455935      -608.7866278769       284.8639043214       305.2532993431        12.9719410787      2304.6011112265     -3103.1878708943      -413.2890129523       271.1601390412       -88.6107315274 
   68000       309.1799695848     11124.1967173896         0.7987643161       325.4931599416      -597.0352074160       272.0691087268       326.9360114597        15.3888563342      2317.4473980411     -3102.7878619877      -426.0887199900       432.3918625304       658.9127096800 
   69000       285.6655240707     11081.7314465130         0.8018251865       229.5624938056      -622.8036859478       260.8485943671       332.5455515123         7.8928665453      2287.4077654280     -3102.4591996344      -409.0392641661       111.0594696435      -733.2396186215 
   70000       287.6839874307     11129.7423102130         0.7983663176       257.2393419206      -601.1495103578       278.4317907763       301.5073687380        11.6150755046      2349.4730314421     -3102.9398206691      -439.2369561498       245.2171582871       -74.0665914463 
   71000       306.7756454818     11717.2497987264         0.7583359181       306.1709485398      -609.1834185346       271.3735535516       312.0775106385        12.6177866617      2306.4890333773     -3102.9007044086      -408.8405983551       -12.7286072895     -1866.1748672284 
   72000       299.7783823253     11342.4138588554         0.7833968584       280.6939855856      -613.7820116372       245.5594182902       316.5224274413        15.8877190881      2328.8104817024     -3102.0710784521      -418.4909797072       534.6210277478      1535.0678456425 
   73000       295.0707385508     11260.5726752548         0.7890905409       279.5757589023      -600.8536138539       279.8510627816       312.0422163612         8.6134630812      2322.2208036170     -3103.9436335568      -419.6375261381       259.9871981914      -119.2795960574 
   74000       298.7544227947     11132.4066993904         0.7981752395       276.3979638453      -615.0227522889       275.6300361608       297.8733293886         6.5836099788      2319.7931923057     -3103.6976595733      -411.2052605494       220.8767723580      -341.9745794411 
   75000       307.1692400909     11206.8222368422         0.7928751965       301.7779218964      -614.7508491752       261.2178312815       311.7005073909        19.3455150530      2305.0656698489     -3103.0974443639      -408.9829283857        18.5438040771     -1732.9546344504 
   76000       307.1278467718     11036.4482694083         0.8051151210       336.6175309739      -579.7877310906       282.4500568772       328.3250895328        16.7408801377      2333.5992553226     -3103.3694560191      -437.5335569418        60.6133075193     -1714.7882791283 
   77000       279.2607660514     10821.0543504587         0.8211409994       181.7346199111      -651.5211014037       263.1424727823       299.5513345701         9.1664585451      2306.9451206700     -3102.8900867386      -427.4364012325        99.2896132640      -522.4189110753 
   78000       293.0365817210     11070.6048895964         0.8026310642       275.5253184132      -598.8345557861       266.7030467520       317.5042587320         4.2199411069      2337.0262092764     -3103.5190712825      -420.7689403710       884.5350758712      3772.0462616883 
   79000       285.2425175928     11442.7529504656         0.7765274163       272.5321210820      -578.5718958089       279.7727802887       329.0330580313         0.8821621330      2332.8161240125     -3103.6600600784      -417.4159601961        78.6194702367     -1161.9828877256 
   80000       294.4835736655     11480.0002451768         0.7740079437       271.2292721637      -607.4481233744       276.9560267008       311.5776039593         8.1654239980      2294.0882549186     -3103.7113163414      -394.5241166098       115.1158173535      -932.4435477258 
   81000       305.7645708349     11170.6642519929         0.7954416303       328.6337209537      -583.7038108307       263.3651049218       328.0004504873        18.2812314955      2304.3485768444     -3102.8705987035      -394.8285758761       434.5246055993       649.9855298936 
   82000       292.6486874848     11596.6354053892         0.7662232254       292.0016750284      -581.2008038943       259.7804558876       319.6946463989        25.8025143152      2318.9948890428     -3103.9077966337      -401.5655129052       206.5662945692      -505.1610590678 
   83000       316.1816926758     11279.0724378558         0.7877962867       383.4486688387      -559.9713758825       278.2617402710       315.7549970921        16.8189033274      2345.9566379115     -3102.3254033059      -414.4382511786       651.5515316755      1629.8670358726 
   84000       304.6938576539     11063.0086582580         0.8031821775       276.9226169621      -632.2201306189       268.1698841768       308.7869110383        11.4179864643      2320.3843118638     -3102.7413998701      -438.2378242920       636.8026800989      2230.5329663613 
   85000       295.9552813709     11468.2378139666         0.7748018072       306.8224317819      -576.2462317562       292.6728728906       318.0926380978        11.1261518771      2306.5361584094     -3102.9435297024      -401.7305233287       412.7144553671       633.1267572370 
   86000       308.7854693435     11080.6295963970         0.8019049194       327.4593320067      -593.8919291367       276.5171566288       308.0771286300         5.4667122285      2324.1837558236     -3103.8847325003      -404.2519499474       131.8325988536     -1210.5643372738 
   87000       302.4878379111     11107.3455142446         0.7999761394       300.4516426667      -602.1088033688       279.0905597271       301.8145314139        10.0652702163      2320.5219404105     -3102.2750089961      -411.3260961405       359.9768180898       367.4637586559 
   88000       297.8227397487     11626.8253583448         0.7642336674       267.7980751257      -620.8426936516       269.0292524216       302.1184427634         9.3388860323      2293.5673418157     -3104.1502452492      -390.7463714353       192.1648856586      -446.0416118172 
   89000       290.6688496702     11527.3776078330         0.7708267818       293.5052247655      -573.7898321817       274.0270047395       323.8664954741         6.3369660689      2325.7843094264     -3103.2146586925      -400.5899491981       470.4023222959      1052.2387665616 
   90000       293.3214640502     11298.4501281914         0.7864451569       271.3144527186      -603.8954507709       271.1893221541       299.1230375277        15.9907320582      2318.1274054351     -3103.9635621480      -404.3623857980       -75.1261625814     -2102.4904843789 
   91000       289.0179861193     11232.2511223834         0.7910801928       217.4731231446      -644.8961022283       253.2140369414       297.9597500096         8.6030392782      2319.3641248859     -3103.2512278984      -420.7858254450       971.8838737369      4605.3768619893 
   92000       294.3074722075     11530.2710577524         0.7706333476       266.2690545515      -611.8828910657       261.0175405698       295.6501467553        10.8215013556      2330.4234259075     -3103.1944352761      -406.6010703777       153.2658724607      -672.0092742932 
   93000       302.8060357706     11734.2149719254         0.7572395260       309.1061407650      -594.4037411354       264.5556007323       304.3615753388        11.5938866936      2329.8281588420     -3102.2877406807      -402.4552220614       145.9871275643      -953.1794174810 
   94000       296.0233664534     11114.5481020538         0.7994577289       278.0072836135      -605.2645315712       258.6551586398       302.0606799654        12.6353158894      2348.0892380714     -3103.0377526335      -423.6671715037       277.5666605255        -2.7183135548 
   95000       305.1298181849     11301.1463740659         0.7862575255       331.5113470273      -578.9322156016       284.6097736694       304.2468037154        11.4618857663      2334.5275556113     -3102.6915191139      -411.0867152501       149.3850178055     -1105.0307031824 
   96000       301.6287665625     10791.2742970677         0.8234070545       249.3321691174      -650.6649876800       264.4211464572       295.0278413874        10.8157575647      2329.3797558541     -3104.7155313872      -445.5939575562       222.4945609558      -170.5277989768 
   97000       287.7983560601     11573.3269793798         0.7677663821       293.4970767829      -565.2330275667       265.8763301952       308.8440942762        12.6534778055      2351.8304841335     -3102.6819907108      -401.7554232663       153.6195456392      -828.7314980153 
   98000       305.9496048595     11481.6271498674         0.7738982696       330.7467589614      -582.1428756542       270.2840172701       311.1737934942        14.0702557089      2322.6650801380     -3102.9252561235      -397.4107661420        94.2198309349     -1412.5416500557 
   99000       312.3704768613     11383.7770388110         0.7805503703       349.1192059273      -582.9289678808       270.2438263583       312.3602589030        18.2494083701      2337.3460238367     -3102.7047944208      -418.4236909281       353.7072320731        27.6352637375 
  100000       286.7219775626     11651.4645152092         0.7626175552       306.9477987710      -548.5706172556       274.1405279178       321.1218611581         8.4513906817      2369.3816800103     -3102.2535697055      -419.4125073181       489.2680059795      1072.9473204363 
  101000       302.1561560964     11219.5430415600         0.7919762285       293.7475406230      -607.8232362454       263.7751731876       306.0503079880        14.8563259330      2316.3562058427     -3102.8394947309      -406.0217544658       290.5380519084       -19.6148411126 
  102000       277.1953272431     11312.5760244589         0.7854631310       216.8268286807      -610.2660551959       255.8229560792       325.8311159771        11.8398068093      2305.2256213033     -3102.3731213223      -406.6124340425       124.8274812338      -557.6315617085 
  103000       292.1858045437     11433.4471728171         0.7771594384       274.2775008233      -597.5438322105       252.2453498082       314.1638705471         2.3162805690      2347.1438690211     -3103.4365453453      -409.9766568106       356.6164903337       493.8015559167 
  104000       299.3737455403     11572.0008850137         0.7678543643       332.0730378464      -561.1956078358       260.0790652763       303.1609912092        19.1577921631      2387.6324188581     -3102.1622032068      -429.0636721357       415.5108457409       494.4000864892 
  105000       305.0301336348     11228.9230075475         0.7913146593       335.8588044551      -574.2873203243       263.0388639333       301.8939512154         9.7066074285      2358.8493884054     -3103.2237331632      -404.5523981438       427.8809082159       561.9247541014 
  106000       303.7006169540     11476.7669761865         0.7742259995       327.8918448389      -578.2872802199       248.0045526584       314.7321165578        13.4112972692      2354.9430256053     -3101.3679594769      -408.0103128338       420.6586027907       554.2388000597 
  107000       308.7820890310     11934.8271900877         0.7445111054       386.7454403221      -534.5957346756       263.7493216135       311.8444233623        10.9389315378      2377.9976902815     -3102.7449631751      -396.3811382956       344.5458621006      -242.4465931706 
  108000       291.5117082153     11378.5049331312         0.7809120298       322.7959941854      -547.0139763851       258.3378278692       343.4621959042        13.9768664515      2346.1665485689     -3102.3689392530      -406.5884759259       382.1685030636       357.7867964443 
  109000       295.8793115795     11740.8297552413         0.7568128973       352.2878074116      -530.5541781571       285.9720377267       331.4051007020        14.9618936364      2336.9096226664     -3102.2560869198      -397.5467459688      -393.3954386134     -4354.9152264274 
  110000       288.2157891341     11338.2554463938         0.7836841766       278.8087004206      -581.1669369197       271.9780854362       289.7773050425        18.8756226848      2355.8666037342     -3103.2400191782      -414.4245346393       202.1642553407      -463.5094122307 
Loop time of 61.7166 on 64 procs for 50000 steps with 1002 atoms

Performance: 69.997 ns/day, 0.343 hours/ns, 810.155 timesteps/s
99.3% CPU use with 64 MPI tasks x no OpenMP threads

MPI task timing breakdown:
Section |  min time  |  avg time  |  max time  |%varavg| %total
---------------------------------------------------------------
Pair    | 7.3534     | 10.614     | 14.539     |  66.3 | 17.20
Bond    | 0.2557     | 0.28326    | 0.30906    |   2.2 |  0.46
Kspace  | 8.242      | 12.164     | 15.402     |  61.9 | 19.71
Neigh   | 21.232     | 21.635     | 21.814     |   3.9 | 35.06
Comm    | 15.114     | 15.323     | 15.792     |   5.1 | 24.83
Output  | 0.027337   | 0.027382   | 0.027733   |   0.0 |  0.04
Modify  | 1.0475     | 1.1458     | 1.1986     |   2.6 |  1.86
Other   |            | 0.5232     |            |       |  0.85

Nlocal:    15.6562 ave 23 max 10 min
Histogram: 6 7 4 10 9 12 9 3 1 3
Nghost:    4713.42 ave 4806 max 4631 min
Histogram: 1 3 10 10 15 8 8 5 3 1
Neighs:    11863.2 ave 22329 max 6339 min
Histogram: 3 17 14 10 3 7 3 5 1 1

Total # of neighbors = 759248
Ave neighs/atom = 757.733
Ave special neighs/atom = 5
Neighbor list builds = 50000
Dangerous builds not checked
unfix anneal
undump anneal

# RETURN TO LESS FREQUENT NEIGHBOR BUILDS
neigh_modify every 1 delay 10 check yes one 10000 # More relaxed rebuild criteria can be used

#===========================================================
# RUN EQUILIBRIUM SIM
#===========================================================

# UPDATE RUN PARAMETERS AND CREATE FIX
fix equil all npt temp ${FINAL_TEMP} ${FINAL_TEMP} 100.0 iso ${pressure} ${pressure} 1000.0 # NPT, nose-hoover 100 fs T relaxation
fix equil all npt temp 298.0 ${FINAL_TEMP} 100.0 iso ${pressure} ${pressure} 1000.0 
fix equil all npt temp 298.0 298.0 100.0 iso ${pressure} ${pressure} 1000.0 
fix equil all npt temp 298.0 298.0 100.0 iso 1.0 ${pressure} 1000.0 
fix equil all npt temp 298.0 298.0 100.0 iso 1.0 1.0 1000.0 

# CREATE COORDINATE DUMPS FOR EQUILIBRIUM
dump equil all custom ${coords_freq} equil.lammpstrj id type x y z mol
dump equil all custom 1000 equil.lammpstrj id type x y z mol
dump_modify equil sort id format float %20.10g

# RUN EQUIL
run		${nSteps_equil}
run		100000
PPPM initialization ...
WARNING: Using 12-bit tables for long-range coulomb (../kspace.cpp:321)
  G vector (1/distance) = 0.186213
  grid = 8 8 8
  stencil order = 5
  estimated absolute RMS force accuracy = 0.00740184
  estimated relative force accuracy = 2.22904e-05
  using double precision FFTs
  3d grid and FFT values/proc = 343 8
Per MPI rank memory allocation (min/avg/max) = 11.04 | 11.05 | 11.05 Mbytes
Step Temp Volume Density TotEng PotEng E_bond E_angle E_dihed E_coul E_long E_vdwl Enthalpy Press 
  110000       288.2157891341     11338.2554463938         0.7836841766       278.8076867762      -581.1679505641       271.9780854362       289.7773050425        18.8756226848      2350.7998668924     -3098.1742959807      -414.4245346393       202.1570954717      -463.5465816950 
  111000       286.1248145645     11292.7590263893         0.7868414940       261.0164635097      -592.7201430212       257.2466853421       309.8536563430         9.4190173439      2345.2727046764     -3097.8092945643      -416.7029121624       498.2100175456      1440.2136812138 
  112000       295.4761165851     11615.2134720648         0.7649976821       310.0653389284      -571.5735971015       274.8540944770       288.4013292405        15.3810254514      2351.3322402634     -3097.7995032435      -403.7427832903       286.3717507386      -139.8710227532 
  113000       306.9380102966     11218.3404666514         0.7920611262       309.6879115867      -606.1509181381       252.1289951476       289.3036271589         5.6829660307      2340.8716528135     -3098.3134541870      -395.8247051018       514.8757656023      1254.1432459571 
  114000       294.0296026212     11578.2492788974         0.7674399790       354.2102694445      -523.1125714409       273.0142514742       336.4733728508         8.1418829413      2375.4924461835     -3096.4577159643      -419.7768089263       496.8884821928       844.9653023984 
  115000       281.1558521046     11902.5780815947         0.7465283002       335.5652962073      -503.3449655520       283.3977085317       317.1730572155        11.1702514014      2363.7859679438     -3096.2948354215      -382.5771152229      -143.6118881344     -2760.4456622117 
  116000       288.9124165010     11382.0720471357         0.7806672939       305.4854318068      -556.5687959037       281.0460557701       291.3242810188        10.1434801381      2381.0410131249     -3097.3756517148      -422.7479742409       101.7689134209     -1227.2386536644 
  117000       305.2112097991     12079.9369891473         0.7355676931       352.6340604426      -558.0523577408       262.8985077773       290.1703467744        11.2756101354      2359.2790093287     -3097.4917711379      -384.1840606186       631.6420479764      1583.7115288534 
  118000       306.2928947612     11338.1167764815         0.7836937614       268.1886708944      -645.7252689923       240.1016751877       287.1534989503        12.4049487019      2317.0361351423     -3097.8653629820      -404.5561639926       441.5071478390      1048.1611266307 
  119000       298.3935780677     11493.8646051616         0.7730743043       332.0093186470      -558.3347122891       273.6146566264       306.6283607076        14.6079626510      2361.8344428354     -3096.4509611216      -418.5691739879        48.6133772707     -1690.6420238220 
  120000       295.4672825017     11498.7031357448         0.7727490030       316.4760897074      -565.1364872651       257.5211128517       306.9825467158        11.3604399716      2373.8032375981     -3096.9818113475      -417.8220130548       676.6564157505      2147.8069117364 
  121000       298.8757315001     11686.2076339611         0.7603502917       300.7737992591      -591.0088766816       257.0574328688       285.1307998913        12.6097627568      2339.7835600676     -3097.4007670780      -388.1896651881       823.2485342875      3065.6022535773 
  122000       295.7397177556     11060.2091582206         0.8033854746       254.9193193560      -627.5061474371       244.9478170112       302.6180829336        11.6133612883      2330.7491665885     -3097.6645060244      -419.7700692343       515.0457450786      1612.6690242705 
  123000       310.5640898318     11589.4994854007         0.7666950065       364.1510054654      -562.5072872344       264.5895721558       331.8030712643        10.7694900904      2336.1071146564     -3096.1333444230      -409.6431909783       380.9343063770        99.2971563118 
  124000       293.1077349308     11676.8361988429         0.7609605232       309.6860031017      -564.8861773949       277.6592344736       307.2831473133        12.2484332274      2337.2222276362     -3096.4856340631      -402.8135859823       -29.8166529810     -1993.6187011155 
  125000       288.8266240547     11601.5428480382         0.7658991136       252.9242524257      -608.8739885679       248.5159420694       312.5967124672        12.5344234004      2312.6545336562     -3097.2471540686      -397.9284460924        88.8580313434      -969.6779886957 
  126000       292.6931815201     11292.6568407446         0.7868486140       282.6165874648      -590.7186523538       261.7009113362       295.6561334963        18.9271569119      2326.8578051850     -3097.4416345134      -396.4190247698       438.1579572880       944.4389700414 
  127000       303.7781117827     11381.5458727619         0.7807033845       338.0525925173      -568.3577609033       263.9751764929       331.4060835361        11.2678594703      2328.0150345335     -3096.9630243864      -406.0588905497       548.9316607259      1270.4463545982 
  128000       291.0475615617     11635.2898034738         0.7636777024       315.6062014378      -552.8188525898       260.9397215033       302.9513307465        14.1066695069      2369.8893753275     -3096.5491583512      -404.1567913228       586.8180695961      1598.2900506058 
  129000       306.4141145183     11341.0074763731         0.7834940063       324.9988331085      -589.2768011814       243.1121601240       315.8179261227        13.3845923457      2363.5032398624     -3097.4793907232      -427.6153289131       165.3351796518      -965.3360756039 
  130000       296.1060899385     11651.8518056435         0.7625922070       315.2791804299      -568.2394643338       267.5864366557       313.8445820822         9.8940944780      2322.8704661295     -3097.8927478693      -384.5422958097       318.4668178775        18.7584987369 
  131000       300.7046493837     11284.5117405723         0.7874165571       285.5119184010      -611.7278660048       259.2063724331       303.2627108358        16.4550047167      2306.4662872879     -3098.2120492267      -398.9061920516       627.3635887109      2077.2034924626 
  132000       296.9022582727     11467.0202372302         0.7748840762       367.7847671771      -518.1094773851       277.3387889964       325.8068661874        16.7672628869      2376.9820435894     -3097.8801717615      -417.1242672836       538.0664484309      1018.2196198796 
  133000       297.7625951282     11635.5376359128         0.7636614363       299.3148202599      -589.1464895483       247.4098641620       320.5606949479         7.2763618992      2327.9618074018     -3095.6592179773      -396.6959999818       241.9250056558      -338.1991230385 
  134000       292.3367035166     11588.3557600365         0.7667706763       314.6454749070      -557.6261091031       277.9157281157       328.1592888279         9.6944836750      2329.7836612874     -3097.3023830102      -405.8768879987       391.0041923585       451.8152821246 
  135000       293.9091359198     11748.8090343780         0.7562989029       301.4859766704      -575.4774167723       255.2550708338       300.9268563980        23.5133017406      2340.2853327071     -3097.4760598081      -397.9819186438       232.0710358472      -405.1195704721 
  136000       294.7338441298     11500.9897829721         0.7725953636       286.1178939600      -593.3062563020       259.5151685703       298.0030565410        11.3344485887      2349.2260282776     -3097.9397437183      -413.4452145613       -84.7368881279     -2211.0205367352 
  137000       306.3399441040     11404.2830718006         0.7791468633       391.8992739304      -522.1550513553       270.8918516405       336.8786400386        18.1457472052      2359.0241608701     -3096.7697496672      -410.3257014424       505.4361790682       682.6422652164 
  138000       296.2582196391     11655.6533472724         0.7623434842       318.5756521039      -565.3969158700       267.9964361312       300.3699948658        13.5751907840      2351.8561039303     -3095.9201274893      -403.2745140920       323.7914627102        30.6838111562 
  139000       292.2324645194     11175.6244292487         0.7950885823       252.7619860041      -619.1985706388       257.8973363053       296.1416222053         8.5793545781      2324.0307961612     -3098.4007864590      -407.4468934298       686.8153051707      2663.1485613322 
  140000       281.5456179913     11723.2622185279         0.7579469961       272.5491135846      -567.5241280649       264.5272013013       322.1168613921        14.7835463064      2319.5449064127     -3098.8434184795      -389.6532249977       118.9610694065      -898.3240804426 
  141000       308.6546585269     11443.7280584840         0.7764612492       360.4172271980      -560.5437218264       279.2449419465       330.6690307834        10.3034715660      2332.3190497258     -3098.3599773163      -414.7202385316       242.2547280733      -708.0048770830 
  142000       299.2155012516     11286.3606604867         0.7872875634       319.1038306535      -573.6926471662       294.8214289217       291.6866834808        15.9929849952      2330.7588258083     -3096.7931025002      -410.1594678720       124.7594880113     -1180.7068673471 
  143000       289.9788393327     11262.6085918245         0.7889478988       250.5870611291      -614.6491492799       250.4503427041       309.9716492827        14.6357431149      2324.9424320324     -3095.2494207531      -419.3998956609       181.5609224733      -420.2412684954 
  144000       301.1636189473     11913.0160206454         0.7458742075       350.1692907632      -548.4399628314       256.1863332668       321.4216463347        12.4292857400      2333.9949443175     -3097.5661696948      -374.9060027955       746.5782607271      2281.6333592686 
  145000       296.8696221782     11542.4864040806         0.7698177908       288.8498825572      -596.9469827245       249.8209665595       315.7347037240        12.8577531561      2313.3137692846     -3098.1542602864      -390.5199151623       312.1558898524       138.4498906271 
  146000       293.0730627093     11658.8712967676         0.7621330708       315.0418445216      -559.4268813174       280.2124472518       309.4723331462        10.3339708212      2323.2260129933     -3098.3424980473      -384.3291474826       462.1320378983       865.0701397385 
  147000       307.8464465474     11240.1217749604         0.7905262560       323.5521251623      -594.9972883447       260.8498976298       317.7691495361         4.4206915010      2326.6481263611     -3098.3220083635      -406.3631450092       293.6296232476      -182.5370374272 
  148000       295.8335050222     11437.1506360395         0.7769077864       312.0954861850      -570.6098221967       266.0699338602       321.1309269934        12.4206783189      2332.8157177523     -3097.1177522306      -405.9293268910       513.1398810405      1205.3085544258 
  149000       290.0116258796     11733.7316819314         0.7572707153       299.8474821013      -565.4865565064       264.9530000349       314.2147861174        13.5934445593      2338.5543861821     -3097.3233863993      -399.4787870008       827.5059268897      3083.4779762539 
  150000       313.4030296283     11413.9392781090         0.7784877041       322.4062145292      -612.7228807877       258.5788497443       302.3478361675        11.1643757697      2340.1921157982     -3098.4726037543      -426.5334545130       240.2234059045      -493.7072811006 
  151000       295.8076241888     11654.2691361157         0.7624340300       287.3637528195      -595.2643325680       259.7057760516       314.5032326317        11.5820235898      2338.7050865272     -3097.4386502048      -422.3218011636      -183.8738604904     -2772.5476265956 
  152000       305.2181548271     11443.2400940999         0.7764943592       275.9120934510      -634.7950472435       250.2024239611       311.4623301263        13.1419367897      2287.4875906254     -3098.3845468212      -398.7047819249       204.2575990293      -429.3569889056 
  153000       284.5829150549     11088.5783857624         0.8013300781       272.3029525454      -576.8329483218       285.1388554562       315.2511677348        15.8189237855      2323.3066269200     -3096.6330884701      -419.7154337482       759.1399050854      3010.4524708022 
  154000       306.2881817646     11312.0235494775         0.7855014927       293.1620976461      -620.7377796443       250.7568361951       311.5364761726        12.8914235099      2307.2638011404     -3097.5756546495      -405.6106620129       336.6107618001       263.3663218500 
  155000       316.5261156454     11076.4663663048         0.8022063255       283.6314615084      -660.8162693213       236.2179519113       298.8650560670        12.8247057509      2312.5034916614     -3098.4214710117      -422.8060037002       324.7770798647       254.7102786738 
  156000       290.8699265733     11816.7517760091         0.7519504134       290.1991373512      -577.6958910216       259.4573418327       315.0503354276        10.8896762585      2341.3054186450     -3098.3200474891      -406.0786156963       233.2008422711      -330.7408690162 
  157000       315.9582098017     11242.1304794616         0.7903850075       367.7888578398      -574.9643607242       252.8971270970       328.5570092537         6.5911801720      2321.6883688924     -3097.5532841306      -387.1447620087       696.9097921605      2007.3864870114 
  158000       295.2961638566     11511.5384587121         0.7718873907       321.2706910974      -559.8313036256       243.2360204980       345.2457733281         5.0207971102      2329.6204654561     -3098.5831053431      -384.3712546749       559.4895802854      1418.9494925694 
  159000       295.8769088528     11469.4411186464         0.7747205197       304.0002590747      -578.8345572603       266.3867610503       320.1846350775        13.9764574227      2325.8412470749     -3098.6188056629      -406.6048522226       -61.8886551850     -2187.4145965204 
  160000       289.8111532686     11583.9526430651         0.7670621296       286.1259775288      -578.6098927345       282.3445384265       310.6877322511        10.2033654323      2308.0799806254     -3096.8046025007      -393.1209069690       682.3192587517      2345.1706135358 
  161000       306.4100197399     11150.7480797513         0.7968623558       306.8247798166      -607.4386365109       246.7153772910       332.2585994733        11.1835105413      2335.1723954400     -3095.5813945397      -437.1871247167       720.0006881126      2540.7099994920 
  162000       299.5961821472     11206.1363285528         0.7929237271       325.6422622723      -568.2900877244       267.5957770254       320.1496033265         8.4844539012      2373.7798328443     -3097.8352493236      -440.4645054983       469.8292685749       882.2554175587 
  163000       288.3964776180     11312.8830127124         0.7854418165       257.6603791982      -602.8543947889       272.4278960618       312.1131515749        14.3707965887      2296.8011753384     -3096.4675666212      -402.0998477315       191.9607235684      -398.2116006608 
  164000       294.0356840617     11535.0694315772         0.7703127785       278.8056410865      -598.5353455454       277.7539234069       308.1480023313         9.5224589322      2322.1599920412     -3097.4769187670      -418.6428034901      -371.5210926413     -3865.7654926442 
  165000       317.3320462149     10804.7227263958         0.8223821757       333.2736807345      -613.5787783624       254.9947417459       325.5687356275         6.1868382631      2307.2808054633     -3097.0040100048      -410.6058894574       961.7271328768      3988.2612636977 
  166000       297.4302697972     11421.8397017109         0.7779492285       287.4852063362      -599.9845141869       275.5488920072       319.7201445210        12.5662106202      2299.7421715488     -3097.3359245792      -410.2260083050      -178.0004796017     -2794.4373694173 
  167000       304.3701671106     11352.3123688712         0.7827137851       327.2289600241      -580.9479626723       273.3169759506       327.4563047485         9.2397899248      2324.1958690432     -3098.0562076282      -417.1006947112       344.2079521502       102.5537829263 
  168000       309.0395214314     11040.3167931351         0.8048330089       296.5129883397      -625.5963111014       264.5065125848       323.2878079419         6.9623292871      2303.1695039933     -3097.0431284764      -426.4793364321       191.9362419787      -649.4978249441 
  169000       295.0228854972     11063.4987650841         0.8031465970       296.0201139369      -584.2664753153       257.4015033195       338.0535905338        13.0523418320      2317.5527607791     -3097.2043568672      -413.1223149124       164.0479400357      -817.9259545874 
  170000       280.7232004759     10993.2478338765         0.8082790016       229.9503471237      -607.6689726604       265.3646893232       327.5451474482        13.6195615812      2310.7813593568     -3097.5000624097      -427.4796679601       525.2822996711      1842.0801742161 
  171000       293.1417036729     11449.1409916443         0.7760941533       250.6379256549      -624.0356104637       271.6192556261       306.0635136436         6.4835877530      2297.3043845027     -3097.7157473145      -407.7906046746        19.2190486820     -1385.9577418689 
  172000       302.0929049473     11187.2745686352         0.7942605975       303.4542755297      -597.9277731379       285.7659364568       311.6175985670        11.8130742887      2292.5890238187     -3098.8884831482      -400.8249231209        16.1589920170     -1760.8741169785 
  173000       306.5233281779     11605.4618353946         0.7656404811       284.7460953898      -629.8554096195       250.1726783395       309.6791999094         9.1937146602      2318.2185835470     -3098.1117454297      -419.0078406459        48.3160934639     -1396.8966268157 
  174000       291.1043709978     11297.1157587387         0.7865380486       267.4306819497      -601.1638795541       271.2627160944       317.8246968929        11.9304932934      2316.2488933490     -3098.6450490070      -419.7856301769       117.2038013403      -911.8096436090 
  175000       302.1500003017     10870.6043969074         0.8173981003       287.1650436077      -614.3873656565       277.5466362921       320.2174351645         4.2585447170      2296.7688968539     -3098.1326748482      -415.0462038358       594.2525735450      1937.0132906370 
  176000       297.9627825584     11271.2272162258         0.7883446242       321.6755704529      -567.3830567801       278.8181490206       330.2583692524        11.6967360115      2324.9568751328     -3097.8523271969      -415.2608590005       273.9714123337      -290.2078405831 
  177000       305.4152680398     11057.1100949231         0.8036106458       275.0401475987      -636.2551376983       255.5250980263       324.6516323914         8.0155844971      2292.2957333924     -3097.8968842680      -418.8463017374       645.6840938667      2298.4729017581 
  178000       283.7803298200     11269.7670153315         0.7884467684       245.1674461622      -601.5737082166       275.2659129932       329.0908216265         7.6474829756      2299.3679598574     -3097.7363439609      -415.2095417085       146.6384100404      -599.4782171770 
  179000       308.3141365626     11290.0458532123         0.7870305842       291.5143112317      -628.4305914679       269.1769561660       310.5362132927         7.9421092379      2304.3005259431     -3098.8427892788      -421.5436068289       326.5921926212       213.0402975954 
  180000       301.7706974955     11156.9211429500         0.7964214562       291.0403209059      -609.3803281120       271.2237063827       328.9028365788        12.3928949340      2304.1988436817     -3097.5665322411      -428.5320774483       180.5826864394      -678.8525994739 
  181000       285.3241559375     11696.0691779803         0.7597092022       311.6418663303      -539.7057423074       294.3359978947       335.3900418084         6.9013722508      2314.2757388301     -3098.0430576197      -392.5658354717       322.4776948874        63.5252389556 
  182000       320.6587468012     11169.6555437348         0.7955134649       364.3976553270      -592.3809825735       271.9532761165       320.3538481658        12.8517731067      2290.0238238395     -3098.1443596936      -389.4193441085       807.5429761445      2720.3857938272 
  183000       289.6652571531     11230.0703830989         0.7912338107       276.0280364807      -588.2725102868       292.7678194910       302.3257695986        13.3314378792      2302.7762680029     -3097.0752312191      -402.3985740392       737.0842065023      2815.1106561124 
  184000       286.7616010838     11292.5060339093         0.7868591221       255.9725811863      -599.6640631409       276.9459944756       322.4986384986        13.2043596913      2307.2537552435     -3096.4925235466      -423.0742875035       383.4934422082       774.3102632357 
  185000       307.3733232620     11139.6940244382         0.7976530921       339.1289726142      -578.0087399583       280.6737709572       329.7246176841        16.2802552736      2317.2046554221     -3098.5810025493      -423.3110367459        24.2940538846     -1937.9106209367 
  186000       302.6310807870     10830.7563508435         0.8204054358       313.1700005656      -589.8178522536       254.5415826460       341.7070407116         9.6762024318      2326.7486734147     -3097.0237499501      -425.4676015076       915.0532820781      3810.4617342906 
  187000       299.1727519130     11145.8831001450         0.7972101720       275.2756259388      -617.3932967952       275.9088043810       317.9026367375        10.0737433436      2295.2596841951     -3098.1985735853      -418.3395918672        73.0099631380     -1244.3191609460 
  188000       288.4994444121     11212.7933408892         0.7924529699       267.5022911650      -593.3197142013       283.3778461926       315.8418763965        19.9730927721      2306.6183560910     -3098.7158067143      -420.4150789392       -42.0707752826     -1893.0995914809 
  189000       298.5854635845     10959.3207409327         0.8107812148       255.5612373887      -635.3553397987       258.8584876502       342.8895272062         5.2294545686      2281.4511047269     -3098.1870797052      -425.5968342453       160.0778549159      -597.4041959135 
  190000       306.7884658356     11031.2135437657         0.8054971784       311.9371116414      -603.4555086875       292.2061051475       327.1683646738        13.8240099641      2285.0847971029     -3098.2912669978      -423.4475185780        45.6574305349     -1655.1556732847 
  191000       289.0555189619     10770.3885228206         0.8250037930       253.9472363883      -608.5339791372       280.8823724931       328.1637299289         9.3134994360      2292.1587536073     -3099.4600433488      -419.5922912539       770.7708343788      3290.2968053310 
  192000       297.2596220940     11153.2114122126         0.7966863583       265.6429274202      -621.3176160459       274.0320793118       308.6929568993         9.8352364947      2297.6589509216     -3097.3262234081      -414.2106162653       164.9398864776      -619.1084924249 
  193000       308.7642392925     11363.7018638418         0.7819292947       298.2776264909      -623.0102886205       236.9911872772       323.8292394947         7.6957555911      2320.6571391244     -3096.5388638396      -415.6447462682       489.7344002219      1155.2474425189 
  194000       289.2861830610     11512.1972941986         0.7718432161       316.3683433629      -546.8011255934       281.3301198102       342.4816402244        11.9711465446      2314.2404608708     -3099.0506240963      -397.7738689471       359.3556363378       256.0389184708 
  195000       299.1610328455     11111.1254957781         0.7997039892       313.3560980558      -579.2778574317       270.3051691446       326.6138238847        13.8409924725      2303.7776823934     -3098.9868183681      -394.8287069588       474.6789825478       995.5476154997 
  196000       288.1410921046     11487.5260250868         0.7735008708       307.3631348649      -552.3896221616       281.6309933865       336.7424034074         9.5960114028      2318.9133476296     -3097.3073842878      -401.9649937001       -10.5719553936     -1897.7371772044 
  197000       299.3314417219     11608.0443412626         0.7654701449       286.8794633621      -606.2629565734       256.0995075282       315.8348842656        11.7623984481      2310.2666485459     -3098.7861052933      -401.4402900680       127.8647872725      -939.2955420099 
  198000       301.7825472354     11027.7698319351         0.8057487161       315.4516409772      -585.0043651863       272.9312376907       315.0687517774        12.6067099138      2333.2736797003     -3098.9551505472      -419.9295937213        95.8332879904     -1365.5419544215 
  199000       289.2285813853     11460.0046722336         0.7753584434       286.5175654279      -576.4800321749       280.0208764235       310.7007310835        12.3841895276      2303.1764066220     -3097.5788762629      -385.1833595686       433.1265206811       877.2024073317 
  200000       316.6438086046     11344.5448008752         0.7832497063       405.8047086810      -538.9941933247       284.0846454454       334.7370523890         9.2712512462      2333.4933048555     -3094.9644826889      -405.6159645720       473.1410812903       406.9928254246 
  201000       300.6909246155     11421.2861190392         0.7779869352       295.9491275979      -601.2497049698       271.5100604622       315.1258539632        15.7583513620      2301.7853092446     -3097.9609468464      -407.4683331555       178.7285576190      -703.7411203145 
  202000       291.1336553349     11287.8432948173         0.7871841548       268.3305632676      -600.3513765735       276.9575630618       300.7432174005         5.0915404692      2326.1482876184     -3097.8731107311      -411.4188743922       641.2133198820      2265.0898789158 
  203000       289.1775171629     11167.3860232901         0.7956751352       242.6125781760      -620.2326544665       265.7895036907       316.9540598776        12.5229356624      2298.7783925781     -3098.3383644399      -415.9391818354        46.2682811623     -1205.5656724363 
  204000       286.1973154498     11305.7109121951         0.7859400840       252.8634601870      -601.0894738231       267.9551004014       325.7506387096        14.9034121103      2307.9731579030     -3099.2534939079      -418.4182890395      -107.1721101654     -2183.5927518771 
  205000       301.9683798318     11081.8304403781         0.8018180238       273.1716630837      -627.8388286826       252.9235379585       337.8760523495        10.9355856539      2284.9100873352     -3098.0589784517      -416.4251135279       547.5202171502      1697.5215070375 
  206000       299.8470566956     11308.7515180810         0.7857287667       324.3975511821      -570.2833559991       280.5237836192       325.9873729997         9.6457363121      2339.5858412749     -3097.9215827620      -428.1045074430       583.4537179097      1570.7366741665 
  207000       311.1803111688     11052.2804086780         0.8039618120       293.0610801646      -635.4358881283       259.8581296387       303.4158792487         9.2583323803      2307.0130870209     -3097.8163629732      -417.1649534438       268.9957409665      -149.3015110218 
  208000       298.0951810313     11263.9962782787         0.7888507031       275.9607092044      -613.4929673817       253.7809368327       315.2422675253         9.1684973076      2325.7715051908     -3097.7224508082      -419.7337234299       134.3128981838      -862.2664327959 
  209000       294.8568742410     11160.7824631419         0.7961459166       293.2673629501      -586.5238834331       254.1479255934       334.7675725408        10.5373399380      2321.0805798041     -3097.8705757974      -409.1867255119       532.5337237424      1469.9789353054 
  210000       288.6278537704     11225.1188856440         0.7915828308       276.2881014809      -584.9170505550       268.0202272988       328.8649108065         9.2506763737      2318.2249209427     -3097.7590305420      -411.5187554346       291.4284088217        92.4842656495 
Loop time of 61.6521 on 64 procs for 100000 steps with 1002 atoms

Performance: 140.141 ns/day, 0.171 hours/ns, 1622.005 timesteps/s
99.2% CPU use with 64 MPI tasks x no OpenMP threads

MPI task timing breakdown:
Section |  min time  |  avg time  |  max time  |%varavg| %total
---------------------------------------------------------------
Pair    | 12.649     | 18.998     | 26.643     |  92.9 | 30.82
Bond    | 0.48419    | 0.5222     | 0.56579    |   2.4 |  0.85
Kspace  | 16.808     | 24.361     | 30.748     |  81.8 | 39.51
Neigh   | 1.6155     | 1.6478     | 1.6615     |   1.2 |  2.67
Comm    | 12.885     | 13.046     | 13.318     |   3.0 | 21.16
Output  | 0.048257   | 0.048308   | 0.049119   |   0.0 |  0.08
Modify  | 2.1098     | 2.2543     | 2.3189     |   2.7 |  3.66
Other   |            | 0.7742     |            |       |  1.26

Nlocal:    15.6562 ave 23 max 9 min
Histogram: 4 2 11 7 5 15 9 8 2 1
Nghost:    4713.55 ave 4817 max 4624 min
Histogram: 2 10 4 7 14 10 7 5 4 1
Neighs:    11937.9 ave 19963 max 5447 min
Histogram: 4 8 6 11 8 9 7 7 3 1

Total # of neighbors = 764025
Ave neighs/atom = 762.5
Ave special neighs/atom = 5
Neighbor list builds = 3812
Dangerous builds = 0
unfix equil
undump equil

# WRITE RESTART FILES, CLEANUP, AND EXIT
write_restart   md-10.end.restart
PPPM initialization ...
WARNING: Using 12-bit tables for long-range coulomb (../kspace.cpp:321)
  G vector (1/distance) = 0.186418
  grid = 8 8 8
  stencil order = 5
  estimated absolute RMS force accuracy = 0.0073285
  estimated relative force accuracy = 2.20696e-05
  using double precision FFTs
  3d grid and FFT values/proc = 343 8
write_data      md-10.end.data pair ii
PPPM initialization ...
WARNING: Using 12-bit tables for long-range coulomb (../kspace.cpp:321)
  G vector (1/distance) = 0.186418
  grid = 8 8 8
  stencil order = 5
  estimated absolute RMS force accuracy = 0.0073285
  estimated relative force accuracy = 2.20696e-05
  using double precision FFTs
  3d grid and FFT values/proc = 343 8
unfix		averages
Total wall time: 0:03:22
