
#===========================================================
# GENERAL PROCEDURES
#===========================================================
units		real	# g/mol, angstroms, fs, kcal/mol, K, atm, charge*angstrom
dimension	3	# 3 dimensional simulation
newton		on	# use Newton's 3rd law
boundary	p p p	# periodic boundary conditions
atom_style	full    # molecular + charge

#===========================================================
# FORCE FIELD DEFINITION
#===========================================================
special_bonds  lj   0.0 0.0 0.0  coul 0.0 0.0 0.0     # NO     1-4 LJ/COUL interactions
pair_style     hybrid lj/cut/coul/long 14.0 14.0 # outer_LJ outer_Coul (cutoff values, see LAMMPS Doc)
kspace_style   pppm 0.0001          # long-range electrostatics sum method
bond_style     harmonic             # parameters needed: k_bond, r0
angle_style    harmonic             # parameters needed: k_theta, theta0
dihedral_style hybrid opls            # parameters needed: V1, V2, V3, V4
pair_modify    shift yes mix arithmetic       # using Lorenz-Berthelot mixing rules

#===========================================================
# SETUP SIMULATIONS
#===========================================================

# READ IN COEFFICIENTS/COORDINATES/TOPOLOGY
read_data ${data_name}
read_data md-15.data
  orthogonal box = (-11.2311 -11.2311 -11.2311) to (11.2311 11.2311 11.2311)
  4 by 4 by 4 MPI processor grid
  reading atoms ...
  1002 atoms
  reading velocities ...
  1002 velocities
  scanning bonds ...
  1 = max bonds/atom
  scanning angles ...
  6 = max angles/atom
  scanning dihedrals ...
  3 = max dihedrals/atom
  reading bonds ...
  835 bonds
  reading angles ...
  1169 angles
  reading dihedrals ...
  501 dihedrals
  4 = max # of 1-2 neighbors
  3 = max # of 1-3 neighbors
  4 = max # of 1-4 neighbors
  5 = max # of special neighbors
include ${settings_name}
include md-15.in.settings
     # Non-bonded interactions (pair-wise)
     pair_coeff           1          1          lj/cut/coul/long     0.008895             2.472292
     pair_coeff           1          2          lj/cut/coul/long     0.001950             2.250716
     pair_coeff           1          3          lj/cut/coul/long     0.027639             3.140452
     pair_coeff           1          4          lj/cut/coul/long     0.038187             2.730439
     pair_coeff           2          2          lj/cut/coul/long     0.001000             1.778439
     pair_coeff           2          3          lj/cut/coul/long     0.003844             3.084341
     pair_coeff           2          4          lj/cut/coul/long     0.006249             2.609874
     pair_coeff           3          3          lj/cut/coul/long     0.204763             3.451371
     pair_coeff           3          4          lj/cut/coul/long     0.180349             3.234606
     pair_coeff           4          4          lj/cut/coul/long     0.205323             2.904517

     # Stretching interactions
     bond_coeff           1           366.904251           1.096103
     bond_coeff           2           612.219900           0.957501
     bond_coeff           3           368.709924           1.411527

     # Bending interactions
     angle_coeff          1           40.926667            108.205025
     angle_coeff          2           61.328715            112.232133
     angle_coeff          3           49.873049            108.741688

     # Dihedral interactions
     dihedral_coeff       1          opls                  0.105414            -0.205941             0.372587            -0.070860

# SET RUN PARAMETERS
timestep	1.0		# fs
run_style	verlet 		# Velocity-Verlet integrator
neigh_modify every 1 delay 0 check no one 10000 # More relaxed rebuild criteria can be used

#===========================================================
# RUN CONSTRAINED RELAXATION
#===========================================================

# SET OUTPUTS
thermo_style    custom step temp vol density etotal pe ebond eangle edihed ecoul elong evdwl enthalpy press
thermo_modify   format float %20.10f
thermo ${thermo_freq}
thermo 1000

# DECLARE RELEVANT OUTPUT VARIABLES
variable        my_step equal   step
variable        my_temp equal   temp
variable        my_rho  equal   density
variable        my_pe   equal   pe
variable        my_ebon equal   ebond
variable        my_eang equal   eangle
variable        my_edih equal   edihed
variable        my_evdw equal   evdwl
variable        my_eel  equal   (ecoul+elong)
variable        my_ent  equal   enthalpy
variable        my_P    equal   press
variable        my_vol  equal   vol

fix  averages all ave/time ${dump4avg} $(v_avg_freq/v_dump4avg) ${avg_freq} v_my_temp v_my_rho v_my_vol v_my_pe v_my_edih v_my_evdw v_my_eel v_my_ent v_my_P file thermo.avg
fix  averages all ave/time 100 $(v_avg_freq/v_dump4avg) ${avg_freq} v_my_temp v_my_rho v_my_vol v_my_pe v_my_edih v_my_evdw v_my_eel v_my_ent v_my_P file thermo.avg
fix  averages all ave/time 100 10 ${avg_freq} v_my_temp v_my_rho v_my_vol v_my_pe v_my_edih v_my_evdw v_my_eel v_my_ent v_my_P file thermo.avg
fix  averages all ave/time 100 10 1000 v_my_temp v_my_rho v_my_vol v_my_pe v_my_edih v_my_evdw v_my_eel v_my_ent v_my_P file thermo.avg

# INITIALIZE VELOCITIES AND CREATE THE CONSTRAINED RELAXATION FIX
velocity        all create ${ANNEAL_TEMP} ${vseed} mom yes rot yes     # DRAW VELOCITIES
velocity        all create 100.0 ${vseed} mom yes rot yes     
velocity        all create 100.0 42184 mom yes rot yes     

fix relax all nve/limit 0.01
run             10000
PPPM initialization ...
WARNING: Using 12-bit tables for long-range coulomb (../kspace.cpp:321)
  G vector (1/distance) = 0.186222
  grid = 8 8 8
  stencil order = 5
  estimated absolute RMS force accuracy = 0.00739865
  estimated relative force accuracy = 2.22808e-05
  using double precision FFTs
  3d grid and FFT values/proc = 343 8
Neighbor list info ...
  update every 1 steps, delay 0 steps, check no
  max neighbors/atom: 10000, page size: 100000
  master list distance cutoff = 16
  ghost atom cutoff = 16
  binsize = 8, bins = 3 3 3
  1 neighbor lists, perpetual/occasional/extra = 1 0 0
  (1) pair lj/cut/coul/long, perpetual
      attributes: half, newton on
      pair build: half/bin/newton
      stencil: half/bin/3d/newton
      bin: standard
Per MPI rank memory allocation (min/avg/max) = 8.559 | 8.677 | 9.272 Mbytes
Step Temp Volume Density TotEng PotEng E_bond E_angle E_dihed E_coul E_long E_vdwl Enthalpy Press 
       0       100.0000000000     11333.3367152673         0.7840242999      -282.6338338716      -581.0129198766       254.3267082993       336.4910281140         7.3053629404      2328.4374908707     -3096.7084152111      -410.8650948898      -399.8457441173      -709.1499270332 
    1000        23.4079941442     11333.3367152673         0.7840242999     -1383.3692752683     -1453.2138342480         9.3709525832        17.3818367862       -37.3023131921      2090.6552228773     -3099.9133244076      -433.4062088950     -1914.7437148337     -3214.8963723482 
    2000        19.8012055836     11333.3367152673         0.7840242999     -1420.9065079290     -1479.9891641672         8.9086592149        17.0744576337       -36.2717840420      2062.6423844632     -3100.3860282914      -431.9568531457     -1865.1697275261     -2687.8602106236 
    3000        17.3257073678     11333.3367152673         0.7840242999     -1444.8860017744     -1496.5822890623         8.8904718849        16.9733444199       -36.6488949521      2051.1098094285     -3100.2086576452      -436.6983621984     -1880.9403827707     -2638.1954855750 
    4000        15.5682439863     11333.3367152673         0.7840242999     -1459.2250813813     -1505.6774654948         8.5143149581        17.3086827493       -35.6487822865      2041.0413313020     -3100.3567210875      -436.5362911302     -1857.7692169553     -2411.2527819840 
    5000        14.4574860148     11333.3367152673         0.7840242999     -1470.3690534093     -1513.5071680395         8.3518994207        16.5867858457       -37.4625528550      2044.5841665445     -3100.0686007945      -445.4988662009     -1878.1861052071     -2467.3553388809 
    6000        14.1125614407     11333.3367152673         0.7840242999     -1481.1295785525     -1523.2385103913         8.5035318546        16.5239778756       -37.5879361769      2033.1982434527     -3100.4105363724      -443.4657910249     -1864.0691316236     -2316.8426787783 
    7000        13.1628817897     11333.3367152673         0.7840242999     -1487.2437156887     -1526.5190020649         8.1268897722        17.0728192845       -37.5720122098      2031.1324012373     -3100.0544859542      -445.2246141948     -1835.9786701077     -2109.8996421239 
    8000        13.3765066208     11333.3367152673         0.7840242999     -1492.5010136679     -1532.4137118625         8.2656093515        16.2743774495       -38.9467116232      2038.3637589868     -3100.3406716339      -456.0300743932     -1880.7498944216     -2348.9649207144 
    9000        12.1929148795     11333.3367152673         0.7840242999     -1498.8545483458     -1535.2356563207         8.2366548878        16.6464830318       -38.4412641441      2032.7027586100     -3100.0455011139      -454.3347875924     -1901.8314024209     -2438.0714047256 
   10000        12.2580143095     11333.3367152673         0.7840242999     -1503.5466466862     -1540.1219977453         8.5385896475        16.9187623626       -37.6441390652      2034.5849720115     -3099.7669930466      -462.7531896551     -1904.9027346438     -2428.2655226136 
Loop time of 12.9892 on 64 procs for 10000 steps with 1002 atoms

Performance: 66.517 ns/day, 0.361 hours/ns, 769.869 timesteps/s
98.9% CPU use with 64 MPI tasks x no OpenMP threads

MPI task timing breakdown:
Section |  min time  |  avg time  |  max time  |%varavg| %total
---------------------------------------------------------------
Pair    | 0.65991    | 1.9752     | 3.6867     |  47.1 | 15.21
Bond    | 0.020786   | 0.049523   | 0.071274   |   5.3 |  0.38
Kspace  | 1.0702     | 2.7752     | 4.0913     |  40.0 | 21.37
Neigh   | 4.6243     | 4.8376     | 4.9289     |   3.2 | 37.24
Comm    | 3.1512     | 3.2457     | 3.4734     |   4.0 | 24.99
Output  | 0.0016296  | 0.0017162  | 0.0017354  |   0.0 |  0.01
Modify  | 0.0088487  | 0.010246   | 0.011428   |   0.6 |  0.08
Other   |            | 0.09404    |            |       |  0.72

Nlocal:    15.6562 ave 24 max 1 min
Histogram: 1 2 2 2 10 6 16 8 11 6
Nghost:    4675.89 ave 5013 max 4387 min
Histogram: 4 4 11 9 12 6 6 3 5 4
Neighs:    11864.8 ave 22822 max 611 min
Histogram: 1 3 8 11 13 8 5 6 6 3

Total # of neighbors = 759346
Ave neighs/atom = 757.83
Ave special neighs/atom = 5
Neighbor list builds = 10000
Dangerous builds not checked
unfix relax

#===========================================================
# RUN RAMPED ANNEAL
#===========================================================

# REINITIALIZE THE VELOCITIES AND CREATE THE ANNEALING FIX
velocity        all create ${ANNEAL_TEMP} ${vseed} mom yes rot yes     # DRAW VELOCITIES
velocity        all create 100.0 ${vseed} mom yes rot yes     
velocity        all create 100.0 42184 mom yes rot yes     

fix mom all momentum 1000 linear 1 1 1 angular # Zero out system linear and angular momentum every ps
fix anneal all npt temp ${ANNEAL_TEMP} ${FINAL_TEMP} 100.0 iso ${pressure} ${pressure} 1000.0 # NPT, nose-hoover 100 fs T relaxation
fix anneal all npt temp 100.0 ${FINAL_TEMP} 100.0 iso ${pressure} ${pressure} 1000.0 
fix anneal all npt temp 100.0 298.0 100.0 iso ${pressure} ${pressure} 1000.0 
fix anneal all npt temp 100.0 298.0 100.0 iso 1.0 ${pressure} 1000.0 
fix anneal all npt temp 100.0 298.0 100.0 iso 1.0 1.0 1000.0 

# CREATE COORDINATE DUMPS FOR ANNEAL
dump anneal all custom ${coords_freq} anneal.lammpstrj id type x y z mol
dump anneal all custom 1000 anneal.lammpstrj id type x y z mol
dump_modify anneal sort id format float %20.10g

# RUN RAMPED ANNEAL
run ${nSteps_ramp}
run 50000
PPPM initialization ...
WARNING: Using 12-bit tables for long-range coulomb (../kspace.cpp:321)
  G vector (1/distance) = 0.186222
  grid = 8 8 8
  stencil order = 5
  estimated absolute RMS force accuracy = 0.00739865
  estimated relative force accuracy = 2.22808e-05
  using double precision FFTs
  3d grid and FFT values/proc = 343 8
Per MPI rank memory allocation (min/avg/max) = 9.828 | 10.36 | 10.55 Mbytes
Step Temp Volume Density TotEng PotEng E_bond E_angle E_dihed E_coul E_long E_vdwl Enthalpy Press 
   10000       100.0000000000     11333.3367152673         0.7840242999     -1241.7429117403     -1540.1219977453         8.5385896475        16.9187623626       -37.6441390652      2034.5849720115     -3099.7669930466      -462.7531896551     -1468.5631764006     -1372.2971820549 
   11000        92.1481972432     10159.9528123029         0.8745721115      -989.2264550126     -1264.1774037168       102.4184131875       104.6428439227       -16.7005839082      2093.9694282602     -3099.5889174129      -448.9185877662     -1241.5488790649     -1702.8965592509 
   12000       109.0937360702      9873.8997749112         0.8999090112      -952.2966554981     -1277.8095480731        85.3123562385       105.8519957473       -11.9335420877      2126.7899726003     -3099.4522902524      -484.3780403189     -1278.4887888060     -2265.2121326190 
   13000       114.6538993754      9610.8558262337         0.9245390363      -957.2238519887     -1299.3271090142        85.4665718064        98.7829495046       -15.6357375072      2126.0463877083     -3099.1963890974      -494.7908914289     -1073.5052935163      -829.6070905254 
   14000       113.9852120914      9641.1452341439         0.9216344291      -940.9173174561     -1281.0253514752        84.0777666339       111.1020211592        -5.2982345565      2134.7824849822     -3100.1536309602      -505.5357587339      -972.2431991271      -222.7915877720 
   15000       121.6540764295      9694.3702654391         0.9165743767      -911.6085514335     -1274.5988727717        85.1556525774       110.0884598793       -11.3243448999      2143.6403951163     -3099.6263724721      -502.5326629727     -1029.0787713095      -830.8684902739 
   16000       132.3470015331      9716.5839952758         0.9144789350      -847.1946445004     -1242.0904180300       101.2807574164       128.5219600546       -10.9397385531      2120.8368136741     -3099.4967131125      -482.2934975094      -970.7423561671      -871.8568964137 
   17000       129.9629403769      9764.5758023965         0.9099843724      -870.5548093762     -1258.3370430179        89.4181069358       120.7371494244       -10.5608437997      2138.1872991562     -3100.3057334912      -495.8130212434      -960.4240051892      -631.0758848023 
   18000       132.6801136784      9587.0181685752         0.9268378580      -844.6876467119     -1240.5773572159       102.5217187465       129.5603638290       -12.2371577252      2137.5038013600     -3100.3361016165      -497.5899818096      -954.4656912157      -785.1561748469 
   19000       141.7066657439      9651.6069281875         0.9206354392      -810.8379289714     -1233.6609830262       108.1617646978       131.6534468385       -11.6723739707      2139.7190349123     -3100.4679978972      -501.0548576070      -783.2680481935       195.8661434039 
   20000       140.7049460574      9694.2080329500         0.9165897156      -769.9148986605     -1189.7490306704       111.5430624712       146.3729667472        -8.3082182716      2151.3714488386     -3099.6467380982      -491.0815523575      -843.7059837745      -521.9341002581 
   21000       150.2606782815      9907.7348385601         0.8968358084      -762.3627781447     -1210.7092166258       107.8303129208       138.4604279753        -9.2039152715      2139.2007587650     -3099.6027119406      -487.3940890749      -714.1768374644       333.4802183919 
   22000       153.6023914975      9715.2705523600         0.9146025667      -727.2272360014     -1185.5446478334       115.3646879208       156.5649537626        -6.2475256911      2145.5838878845     -3099.7834388407      -497.0272128694      -809.1954728662      -578.5152407103 
   23000       152.1860609408      9758.3285020467         0.9105669461      -718.5461106233     -1172.6374882855       122.1742112197       157.0752046247        -2.1015774614      2120.0703027517     -3099.8597417664      -469.9958876539      -129.3025637266      4140.4115521642 
   24000       149.2839971461      9876.1034478013         0.8997082129      -728.7961127119     -1174.2283389482       117.2680851791       160.8884812246        -9.6856281832      2132.9231274173     -3100.3325816795      -475.2898229065      -612.2611708077       809.0859214584 
   25000       158.7622489890      9914.5786915558         0.8962167390      -647.4555507624     -1121.1688982167       133.4305035347       177.1817374263        -3.4605101972      2140.0636035369     -3099.4847571745      -468.8994753428      -754.1869638826      -738.1457201599 
   26000       162.7015810131      9779.6746007487         0.9085794514      -650.0597403709     -1135.5272307133       124.2971945036       173.4755699173        -2.0492999660      2148.6703133218     -3098.9161730942      -481.0048353958      -667.2946793101      -120.8396489591 
   27000       173.6571927353      9837.6130620223         0.9032283876      -614.8795379976     -1133.0362824631       124.8377519034       171.3290703921        -8.2724547865      2160.8455516211     -3098.8499106174      -482.9262909757      -347.3171682889      1864.9165695884 
   28000       167.0558337919     10029.7839744110         0.8859225090      -582.9519338690     -1081.4116038552       144.9560840845       190.8334864630        -7.0554638696      2153.9002500900     -3099.8150452137      -464.2309154095      -922.3169337004     -2320.0619479229 
   29000       167.1429544292      9968.5923086477         0.8913606965      -569.4552435082     -1068.1748632558       145.5322903109       188.2062090137        -4.8106673592      2178.9158656918     -3098.6145065073      -477.4040544056      -706.3031327950      -941.3006946178 
   30000       183.9218502530     10039.8230573872         0.8850366518      -516.9252758653     -1065.7096116137       141.2755157386       197.6007739273        -2.5483601122      2174.2164063338     -3098.5018999624      -477.7520475388      -572.9932894414      -382.9245596403 
   31000       176.3707639314      9769.3600597465         0.9095387343      -562.4321740332     -1088.6856474318       136.1712322537       184.9655086137        -2.9534425163      2178.2424014313     -3098.7035087748      -486.4078384393      -348.1712102767      1503.8379782617 
   32000       180.6335467964      9880.0620218352         0.8993477332      -514.9054885945     -1053.8782145439       152.9086223162       194.9992376071        -0.7883553195      2182.3731454678     -3099.3531733862      -484.0176912292      -365.8418306445      1034.5136232081 
   33000       194.3668762375     10009.4405952091         0.8877230749      -453.3518531953     -1033.3019620092       151.9929584213       206.6794953401         2.4455917912      2187.6842020808     -3098.8888799937      -483.2153296489      -340.8882433688       770.4178268135 
   34000       201.1046688533     10162.2923188085         0.8743707723      -379.5713591943      -979.6256320320       161.7821543921       229.7539453691         1.3399955537      2188.7152310465     -3099.5063934666      -461.7105649268      -483.9380121697      -704.1970206006 
   35000       208.4928237163     10250.1777727511         0.8668738807      -365.4283504293      -987.5273322199       169.2201962803       210.0220787447        -3.8790589669      2174.0032171190     -3098.0065442071      -438.8872211900      -288.4825471965       514.7278306331 
   36000       201.0090356021     10229.8657983122         0.8685951076      -394.7476250798      -994.5165482967       165.9833637169       215.6393835439        -3.5374169344      2179.7676775405     -3099.0236510215      -453.3459051421      -573.6772864518     -1199.3239714627 
   37000       217.9323285131     10066.9676773359         0.8826502347      -306.3811409147      -956.6456308414       176.9892587930       229.6172050775         5.8502172532      2207.8812208718     -3099.9332515530      -477.0502812840      -124.2357947038      1240.6335343090 
   38000       207.1311508959     10222.2207777287         0.8692447147      -313.8963170648      -931.9323519396       178.0077748008       226.3205246604         1.0385296504      2214.8107458799     -3097.9194717104      -454.1904552208      -210.6790027678       692.3591062835 
   39000       228.6090337900     10178.0381415766         0.8730180866      -266.3518384830      -948.4733840304       181.9617123166       213.6492642445        -2.2028813252      2197.6034872835     -3099.7425609713      -439.7424055786       114.0469283500      2562.7080727027 
   40000       217.8972105310     10348.5368151687         0.8586345628      -264.5760663113      -914.7357715240       184.1816450694       230.4179258049         1.6529613624      2202.2587317572     -3098.5577988013      -434.6892367166      -552.9637265867     -1910.8290499250 
   41000       220.5875026962     10577.7886765253         0.8400254207      -224.4922331100      -882.6792074961       186.4240065252       249.4016461132         4.2736596427      2210.0739706380     -3098.7722458075      -434.0802446078       -85.5514336080       900.6561477096 
   42000       227.8636574146     10503.1188346329         0.8459974150      -185.4697999452      -865.3672982765       200.0214104828       244.7770906201         3.9848339014      2229.0793187280     -3098.7921940214      -444.4377579874      -344.1666845876     -1036.0345357121 
   43000       227.6568267980     10354.4341108572         0.8581455334      -172.9980305574      -852.2783895853       203.1396132078       263.1847623345         2.3775702686      2232.4548129684     -3099.0412361528      -454.3939122118      -359.5682860698     -1235.4925985979 
   44000       235.4970996760     10426.2033446768         0.8522384506      -163.0618733015      -865.7359668830       182.9136563159       257.0096312156        -1.3069239980      2233.5716025854     -3099.4613201066      -438.4626128952      -401.8192867459     -1570.1993207089 
   45000       228.3152167447     10688.5085120331         0.8313237879      -152.7648169380      -834.0096738712       199.1190669508       245.9997052522         1.3802133069      2285.1477393070     -3098.6157333255      -467.0406653627       -58.4673205118       604.9328455073 
   46000       245.9748069056     10566.9673334032         0.8408856679       -82.9959867291      -816.9333673765       206.6479849171       280.9396608959         7.9766346826      2242.6860127418     -3098.0517581732      -457.1319024407        45.1924338547       831.8069454992 
   47000       246.0136831111     10618.5001542188         0.8368047516       -98.4469444895      -832.5003236037       202.1876353391       255.7545937887        -0.8352695110      2267.9283586775     -3098.0814174943      -459.4542244036        -6.0606457926       596.5797407695 
   48000       251.1615672891     11004.6539554797         0.8074412353        -3.4425565163      -752.8561453895       219.6405590227       282.6157215097         3.5866831201      2266.0725149989     -3099.5507346476      -425.2208893933      -130.5516820393      -791.9986675101 
   49000       254.8579954705     10621.0680345059         0.8366024353       -14.6601985698      -775.1031560653       229.8452923580       268.5256049558        12.9254562866      2261.2713166252     -3098.8241164100      -448.8467098809      -239.3878054973     -1450.8160350445 
   50000       270.9676659852     10829.1465591061         0.8205273920        54.1297886201      -754.3810565155       235.5270148827       278.5886418238        15.0190163875      2251.0851092002     -3099.3254780264      -435.2753607833      -205.0021850188     -1640.7819961862 
   51000       259.6633264054     10637.3214253525         0.8353241411        22.8322612000      -751.9487988185       213.0790707622       298.4353064861         0.3461668281      2283.7518230486     -3098.2663485185      -449.2948174250       113.9406401027       587.2866753551 
   52000       264.4275263654     10905.4414244183         0.8147869525        68.2435444121      -720.7528919026       228.6340836165       309.0720547144         5.5977660381      2263.3751284790     -3098.3129250406      -429.1189997101        -7.6428164895      -477.1386397519 
   53000       269.7835593890     11191.6826466859         0.7939477614       132.1015876332      -672.8761310634       261.2530144091       295.5674942894         1.0841199053      2273.0022291383     -3097.8973974149      -405.8855913906       -69.4492862751     -1234.8477348797 
   54000       272.4072951503     10861.2305339404         0.8181035616       128.7557506880      -684.0506467923       264.6166708357       292.0636829710         2.5647388439      2279.5009581924     -3096.4265001677      -426.3701974676       -32.8003830480     -1019.9256879034 
   55000       291.4687327348     11172.2270407920         0.7953303626       218.5557825883      -651.1259581361       263.9621138525       315.7930104627         4.6588966279      2269.2117104112     -3097.7903019664      -406.9613875240       135.4748464878      -509.9008536376 
   56000       277.7335192944     10779.5591824698         0.8243019249       152.4119579352      -676.2867784649       263.7523401230       305.6619012670         6.3069868601      2291.7691477636     -3098.4178813430      -445.3592731357        67.8852900610      -537.6713039240 
   57000       279.8234474594     10625.8660445161         0.8362246754       163.3543352121      -671.5803097449       266.6064581394       295.0388039693         4.0402972595      2303.9900688581     -3097.9262281174      -443.3297098539       407.0206220283      1572.3717018382 
   58000       279.5686420487     11169.9452297090         0.7954928337       206.6632525950      -627.5111063065       269.4830398536       317.0731879800         6.4530327388      2284.9309818219     -3097.0403837859      -408.4109649149       481.0764941554      1684.5275998995 
   59000       282.0697290762     11043.2594971355         0.8046185445       233.5822069309      -608.0548725833       289.9667486349       317.6666092272         5.5285735541      2309.8429321947     -3098.3848301057      -432.6749060885        28.2021196948     -1275.2201519845 
   60000       312.1877560112     10858.8446410531         0.8182833144       313.7173509354      -617.7856220702       270.5125737000       310.0560879061        10.1901966127      2339.0466322858     -3098.6082276318      -448.9828849430       212.4746991571      -639.2989670921 
Loop time of 68.0425 on 64 procs for 50000 steps with 1002 atoms

Performance: 63.490 ns/day, 0.378 hours/ns, 734.835 timesteps/s
99.3% CPU use with 64 MPI tasks x no OpenMP threads

MPI task timing breakdown:
Section |  min time  |  avg time  |  max time  |%varavg| %total
---------------------------------------------------------------
Pair    | 7.7069     | 11.899     | 15.626     |  68.6 | 17.49
Bond    | 0.24149    | 0.28772    | 0.33757    |   4.0 |  0.42
Kspace  | 8.9826     | 12.748     | 17.007     |  66.6 | 18.74
Neigh   | 23.605     | 23.694     | 23.829     |   1.2 | 34.82
Comm    | 17.347     | 17.501     | 17.61      |   1.5 | 25.72
Output  | 0.029575   | 0.029606   | 0.030031   |   0.0 |  0.04
Modify  | 1.1253     | 1.1817     | 1.2185     |   1.8 |  1.74
Other   |            | 0.7013     |            |       |  1.03

Nlocal:    15.6562 ave 23 max 9 min
Histogram: 3 3 10 4 9 19 6 4 3 3
Nghost:    4881.73 ave 4996 max 4775 min
Histogram: 2 5 6 9 13 11 5 10 2 1
Neighs:    12382.4 ave 19260 max 6764 min
Histogram: 10 5 7 5 9 8 6 5 5 4

Total # of neighbors = 792474
Ave neighs/atom = 790.892
Ave special neighs/atom = 5
Neighbor list builds = 50000
Dangerous builds not checked
unfix anneal

# RUN EQUILIBRATION PHASE AT FINAL TEMP
fix anneal all npt temp ${FINAL_TEMP} ${FINAL_TEMP} 100.0 iso ${pressure} ${pressure} 1000.0 # NPT, nose-hoover 100 fs T relaxation
fix anneal all npt temp 298.0 ${FINAL_TEMP} 100.0 iso ${pressure} ${pressure} 1000.0 
fix anneal all npt temp 298.0 298.0 100.0 iso ${pressure} ${pressure} 1000.0 
fix anneal all npt temp 298.0 298.0 100.0 iso 1.0 ${pressure} 1000.0 
fix anneal all npt temp 298.0 298.0 100.0 iso 1.0 1.0 1000.0 
run ${nSteps_ramp}
run 50000
PPPM initialization ...
WARNING: Using 12-bit tables for long-range coulomb (../kspace.cpp:321)
  G vector (1/distance) = 0.187094
  grid = 8 8 8
  stencil order = 5
  estimated absolute RMS force accuracy = 0.00709087
  estimated relative force accuracy = 2.13539e-05
  using double precision FFTs
  3d grid and FFT values/proc = 343 8
Per MPI rank memory allocation (min/avg/max) = 10.43 | 10.54 | 10.55 Mbytes
Step Temp Volume Density TotEng PotEng E_bond E_angle E_dihed E_coul E_long E_vdwl Enthalpy Press 
   60000       312.1877560112     10858.8446410531         0.8182833144       313.7087306504      -617.7942423551       270.5125737000       310.0560879061        10.1901966127      2353.5154163547     -3113.0856319856      -448.9828849430       212.4332306521      -639.5063879047 
   61000       304.2410379548     11077.5342752017         0.8021289903       301.0290571078      -606.7625711940       266.7596752954       327.4308415914         6.9739040526      2338.8753187132     -3112.9132265678      -433.8890842788       507.9081622980      1280.5532338787 
   62000       306.8067691631     10938.8784700819         0.8122963801       315.7199489053      -599.7272847252       300.5690552471       319.1997772617         9.2557440849      2295.8789554910     -3112.7707397222      -411.8600770876       170.8438541430      -908.1300442644 
   63000       295.3080316367     11414.5247229975         0.7784477759       314.0822017573      -567.0552039397       289.3999103243       330.4620487682         8.3732379716      2334.0310916938     -3112.6274537992      -416.6940388983       239.9812076876      -445.1335326340 
   64000       293.9155650771     11376.9611600700         0.7810179940       325.2106728888      -551.7719038147       292.3228477587       322.7806782315        10.7965398490      2323.7871802019     -3113.1543481470      -388.3048017088       -77.6721431793     -2428.1559671208 
   65000       289.4675614058     11371.6297947683         0.7813841590       246.0164727518      -617.6941912518       258.0616022854       324.3699725568        24.2957251076      2297.0913034253     -3113.4227598486      -408.0900347785       601.1488136862      2141.3695461943 
   66000       294.1765896963     11336.8538131306         0.7837810675       296.3485853751      -581.4128342015       257.2331222181       341.6767962343        12.7079924939      2352.9695467295     -3113.5481528361      -432.4521390411       209.4430032151      -525.6289021265 
   67000       302.0161711360     11435.2563813827         0.7770364815       320.4193491166      -580.7337419061       268.2574351017       331.6521044305         7.6890159418      2333.9521121416     -3112.4345527600      -409.8498567617       -72.7964077094     -2357.8116921352 
   68000       297.6210693695     11444.6098046034         0.7764014270       308.5567160713      -579.4823104717       276.1919223993       327.0474093414        12.9917905372      2299.8519411356     -3113.2784083453      -382.2869655398       340.4805217996       191.2660018066 
   69000       293.5965972317     11085.1959258571         0.8015745904       339.9602808783      -536.0705624835       308.1235867393       334.1721254568        11.2050224450      2355.7238255139     -3111.3416280470      -433.9534945916       458.0552361196       730.4863129663 
   70000       307.5840495556     11283.4935265125         0.7874876130       313.0555467669      -604.7109289941       269.2285720843       329.9497529174        12.6961359708      2301.3375807643     -3113.1767334229      -404.7462373080       310.2861076980       -16.8295437005 
   71000       308.6442201760     10996.1636181241         0.8080646753       336.1122295078      -584.8175736606       274.5033949006       334.2428300455         4.8474362230      2338.9593289196     -3111.6778393459      -425.6927244033        40.1650403865     -1845.4281317082 
   72000       304.4778787965     11262.7139915719         0.7889405156       290.4139274432      -618.0843843971       272.9710388402       320.6715203328        11.1395406403      2316.2994829747     -3112.4172405227      -426.7487266625      -104.1052747298     -2401.8683596433 
   73000       290.7515682809     11174.5838701392         0.7951626196       245.8296693204      -621.7122026614       254.5099962656       320.0174971463        17.4456929482      2309.8321131526     -3112.5068855047      -411.0106166696       339.1949279103       572.8989886312 
   74000       294.0349880174     11356.9271545602         0.7823957363       272.8774302312      -604.4614795500       259.8326884238       312.7094319535        10.1294633457      2349.9288514470     -3109.6634858006      -427.3984289194       204.8519509538      -410.7096250761 
   75000       307.6779316185     11022.0443353229         0.8061672693       325.2878676683      -592.7587325342       273.0689196296       323.2900316291         7.7936513985      2336.2996928133     -3112.5753325724      -420.6356954323      -100.0606578279     -2646.1038740695 
   76000       292.1837790973     10771.9730399153         0.8248824380       200.4757626129      -671.3395269123       253.1036056061       299.7710682492        17.0245050655      2316.6310448475     -3113.9691041929      -443.9006464877       369.8757531096      1078.3065280922 
   77000       296.8776987940     11020.8999138181         0.8062509825       306.1303337033      -579.6906305108       269.3175918104       333.5784555104         9.8087297161      2332.5138561722     -3113.2957371909      -411.6135265289       410.2141047983       647.5749954190 
   78000       298.1943854360     11364.3062867735         0.7818877069       334.6491162572      -555.1005655249       282.2135921993       335.2034430503         9.1574995687      2345.8044737344     -3111.0359103793      -416.4436636983       -74.8060739974     -2470.5153751409 
   79000       297.8954951685     11415.2459767729         0.7783985909       334.4134694524      -554.4443862813       275.2176045734       322.1389381633        13.7405701776      2379.1229871886     -3112.4515227942      -432.2129635900       430.3746907035       576.4141093448 
   80000       307.1447667120     11251.4895326198         0.7897275608       359.8963329020      -556.5594147255       259.2614178524       351.2586221938        15.1579513810      2342.2614400633     -3112.8595755320      -411.6392706841       713.5197380036      2155.0387905905 
   81000       300.0984928766     11403.0278133408         0.7792326327       311.7149906673      -583.7161494926       236.1594400557       336.1884524944        -0.2198083086      2384.9781320855     -3110.8510593549      -429.9713064648       324.5152939583        76.9704785913 
   82000       283.7421119305     11202.9590547654         0.7931486083       296.5513367484      -550.0757834412       265.7086592016       367.0426760838        13.7891524330      2335.7789282576     -3112.1463907521      -420.2488086651        34.7177609094     -1602.5688571475 
   83000       305.3183841710     11347.6607381551         0.7830346349       337.4548689083      -573.5513351864       255.6399244008       334.3609118247        17.7078433133      2323.2960788562     -3112.8642321944      -391.6918613870       414.8959095549       467.9386823077 
   84000       309.1063547798     10883.8052958258         0.8164066833       333.8816764481      -588.4270397271       271.7165265496       338.5913409766        15.0712200987      2320.7760391463     -3112.1254371121      -422.4567293863       731.3055299483      2503.7864034693 
   85000       294.6107230997     11563.9676787098         0.7683877740       310.8876615694      -568.1691212882       256.9707882280       335.2326827265        13.7077547721      2339.0719735227     -3113.2733505988      -399.8789699387       358.4743000477       282.1644323376 
   86000       302.4107762960     11166.5782766322         0.7957326912       287.5734096696      -614.7571006232       258.5011130313       306.5364728178         7.2413152850      2333.9259926593     -3110.5041423354      -410.4578520812       534.3679654828      1515.4428781608 
   87000       300.6140191521     11320.3442306089         0.7849241333       330.9886312267      -565.9807315223       247.9676964130       344.9990905567        10.9764843907      2371.4330436261     -3112.5021335216      -428.8549129872       104.8379862272     -1369.8162319933 
   88000       304.6024182258     11308.3213594454         0.7857586552       296.5755080846      -612.2944033666       258.9662021805       320.3831066709         7.7282705267      2325.6521641957     -3112.9683295516      -412.0558173887       507.8111964459      1280.8352258462 
   89000       293.5186389373     11076.4904372722         0.8022045822       356.2500190991      -519.5482130162       276.5871272828       349.2307864200         7.1853985786      2378.8479647491     -3112.3113257710      -419.0881642756       388.7642681243       201.2777001158 
   90000       290.2473448479     11689.2425143519         0.7601528818       338.6221424729      -527.4152322379       272.1285679005       337.9930408720        11.8492675432      2378.7918711239     -3112.6578404315      -415.5201392461       116.3415499885     -1303.8849945328 
   91000       289.9787862460     11425.0507438822         0.7777305837       265.5851510141      -599.6509009951       270.0974964350       289.8769325001         7.0431451356      2351.8707953762     -3112.8133230271      -405.7259474149        98.7852143846     -1001.0640244124 
   92000       290.2700841937     11662.2045433913         0.7619152409       292.0952399342      -574.0099842290       263.8185421559       323.8023427029         9.3160807665      2338.6568573432     -3110.3756122358      -399.2281949617       276.7589656519       -90.1702603165 
   93000       289.6181016141     11015.5162413845         0.8066450259       285.8865681485      -578.2732763526       277.8944475843       320.4726658750        19.9345098127      2353.8827399345     -3112.5938512303      -437.8637883289       387.4276990543       632.0642855899 
   94000       300.6654341088     11323.6527583806         0.7846947953       317.2904639928      -579.8323102340       254.1790879022       322.4221249134         7.4438493336      2371.2070298917     -3113.6370251782      -421.4473770967       344.3325497231       163.7486592349 
   95000       302.1698588212     11078.5222487110         0.8020574571       360.6569847391      -540.9546781941       277.8861914116       316.5102115382        14.8224843847      2373.9459887325     -3110.8818746860      -413.2376795751       534.8837913659      1078.3438181299 
   96000       297.5006782531     11282.2703700798         0.7875729877       278.0820033191      -609.5978013111       270.3478990686       293.9985831799        11.7692030318      2332.5444540306     -3111.4671495368      -406.7907910854       350.9433090761       442.8172776139 
   97000       310.4572098169     11152.0162461621         0.7967717395       313.1660994408      -613.1732856474       269.2308757462       317.0619014597         4.8609618540      2352.4274127397     -3113.0017336158      -443.7527038311       670.0662679866      2194.4084666160 
   98000       293.8791547062     11639.4259752722         0.7634063228       349.0760824304      -527.7978533410       290.8892740567       329.7094716864         2.3469715669      2346.5450902782     -3111.9326108260      -385.3560501032       154.5625054819     -1145.8887831474 
   99000       291.3752728592     11177.7434556080         0.7949378530       270.7731652069      -598.6297107949       267.5541435082       318.3014753673        13.7634440456      2356.2124193016     -3112.9609542018      -441.5002388158       180.8744674695      -551.4718815021 
  100000       297.9486642546     11454.3866674491         0.7757387315       305.6711959406      -583.3453052264       286.4615813133       321.7566248488         2.1780706363      2337.3428589126     -3113.7916296322      -417.2928113052       305.8989175596         1.3631904469 
  101000       301.2071188215     11060.4210904546         0.8033700807       311.0817948907      -587.6572532308       273.1579274856       326.7008882849        11.2525124575      2324.5993138685     -3112.4368849307      -410.9310103967       558.2784517402      1532.4807993153 
  102000       300.6311693136     11072.9767646966         0.8024591374       313.6309410218      -583.3895942224       296.6060537429       328.2207503851        15.3065882636      2316.0888217076     -3113.5988474282      -426.0129608934       117.9768766328     -1211.5702370327 
  103000       295.6590276691     11267.7847943779         0.7885854714       259.0794676696      -623.1052367806       264.6718659210       303.1495290739         7.2916360013      2322.2863246856     -3112.4358098091      -408.0687826532      -186.0438018577     -2708.7309198817 
  104000       302.6971768370     10895.6983783136         0.8155155434       315.0849452892      -588.1001243200       251.3225738545       357.5441291327        14.4745583196      2332.1454938239     -3112.8282635061      -430.7586159446       640.9545765993      2050.7509789406 
  105000       303.0756699319     11609.8784447460         0.7653492176       302.8549837223      -601.4594301241       250.5866169065       344.0373834275         8.8213590540      2301.5452671998     -3113.0367744614      -393.4132822503       242.1505464662      -358.5228791088 
  106000       301.6089001154     11379.0947112850         0.7808715552       318.4939935207      -581.4438859534       259.3550010351       349.0496584055         4.7422873887      2321.4781789283     -3111.9558691405      -404.1131425704       256.6219498141      -372.8300077830 
  107000       292.8006786548     11043.6862931311         0.8045874491       251.7559793925      -621.9000093942       256.1073698065       318.4866934045         8.7215272279      2332.6175378612     -3111.7824388368      -426.0506988573         4.0361848399     -1538.0510841892 
  108000       289.8089064857     11410.2511780794         0.7787393323       301.5521441796      -563.1770221535       278.4135944683       324.7823043631        13.3201648903      2342.8993269736     -3110.7221843202      -411.8702285287       322.1621441978       123.8531047515 
  109000       290.0779719520     11040.3582117652         0.8048299895       275.9746745135      -589.5573268989       258.8728539304       326.0398141724        12.1436487820      2348.0925751323     -3111.3827687825      -423.3234501333       573.5244042484      1847.9937842832 
  110000       307.3543909041     11291.7867199111         0.7869092469       307.3846294171      -609.6965929588       272.0917542375       297.9071312979         6.7884554929      2331.4224826244     -3112.4950999214      -405.4113166902       384.5110030710       468.3433478972 
Loop time of 64.9079 on 64 procs for 50000 steps with 1002 atoms

Performance: 66.556 ns/day, 0.361 hours/ns, 770.322 timesteps/s
99.3% CPU use with 64 MPI tasks x no OpenMP threads

MPI task timing breakdown:
Section |  min time  |  avg time  |  max time  |%varavg| %total
---------------------------------------------------------------
Pair    | 7.1372     | 10.878     | 15.765     |  69.3 | 16.76
Bond    | 0.2573     | 0.28739    | 0.31861    |   2.6 |  0.44
Kspace  | 8.4067     | 13.331     | 17.071     |  62.7 | 20.54
Neigh   | 22.748     | 22.827     | 22.912     |   0.9 | 35.17
Comm    | 15.787     | 15.879     | 15.96      |   1.2 | 24.46
Output  | 0.027467   | 0.027496   | 0.027916   |   0.0 |  0.04
Modify  | 1.0975     | 1.1472     | 1.1993     |   1.9 |  1.77
Other   |            | 0.5296     |            |       |  0.82

Nlocal:    15.6562 ave 24 max 8 min
Histogram: 3 5 7 8 4 14 16 5 1 1
Nghost:    4719.86 ave 4865 max 4592 min
Histogram: 4 3 8 9 14 8 9 4 3 2
Neighs:    11914.1 ave 20767 max 5561 min
Histogram: 7 8 11 5 9 7 7 5 3 2

Total # of neighbors = 762505
Ave neighs/atom = 760.983
Ave special neighs/atom = 5
Neighbor list builds = 50000
Dangerous builds not checked
unfix anneal
undump anneal

# RETURN TO LESS FREQUENT NEIGHBOR BUILDS
neigh_modify every 1 delay 10 check yes one 10000 # More relaxed rebuild criteria can be used

#===========================================================
# RUN EQUILIBRIUM SIM
#===========================================================

# UPDATE RUN PARAMETERS AND CREATE FIX
fix equil all npt temp ${FINAL_TEMP} ${FINAL_TEMP} 100.0 iso ${pressure} ${pressure} 1000.0 # NPT, nose-hoover 100 fs T relaxation
fix equil all npt temp 298.0 ${FINAL_TEMP} 100.0 iso ${pressure} ${pressure} 1000.0 
fix equil all npt temp 298.0 298.0 100.0 iso ${pressure} ${pressure} 1000.0 
fix equil all npt temp 298.0 298.0 100.0 iso 1.0 ${pressure} 1000.0 
fix equil all npt temp 298.0 298.0 100.0 iso 1.0 1.0 1000.0 

# CREATE COORDINATE DUMPS FOR EQUILIBRIUM
dump equil all custom ${coords_freq} equil.lammpstrj id type x y z mol
dump equil all custom 1000 equil.lammpstrj id type x y z mol
dump_modify equil sort id format float %20.10g

# RUN EQUIL
run		${nSteps_equil}
run		100000
PPPM initialization ...
WARNING: Using 12-bit tables for long-range coulomb (../kspace.cpp:321)
  G vector (1/distance) = 0.186297
  grid = 8 8 8
  stencil order = 5
  estimated absolute RMS force accuracy = 0.00737172
  estimated relative force accuracy = 2.21997e-05
  using double precision FFTs
  3d grid and FFT values/proc = 343 8
Per MPI rank memory allocation (min/avg/max) = 11.04 | 11.05 | 11.05 Mbytes
Step Temp Volume Density TotEng PotEng E_bond E_angle E_dihed E_coul E_long E_vdwl Enthalpy Press 
  110000       307.3543909041     11291.7867199111         0.7869092469       307.3805686363      -609.7006537397       272.0917542375       297.9071312979         6.7884554929      2318.1962212056     -3099.2728992834      -405.4113166902       384.4908454822       468.2456013995 
  111000       292.3870624527     11386.1902350082         0.7803849400       282.0344957389      -590.3873488043       253.2180796686       313.2207276992        13.5322236650      2364.2793530727     -3099.3081607618      -435.3295721480      -133.6574423905     -2503.3252332438 
  112000       301.0141181479     11301.4703510887         0.7862349860       356.5521938291      -541.6109806465       292.8260160088       338.7490846318         9.2579593839      2327.2479556603     -3100.3413849239      -409.3506114075       551.4147159057      1182.2722058825 
  113000       300.9734104807     11136.6670221769         0.7978698982       311.9064579362      -586.1352533743       264.4646259772       330.1547628577        17.9553128834      2326.6424288381     -3100.0665978913      -425.2857860392        15.1598199476     -1827.0678815249 
  114000       307.6070266382     11334.0582635853         0.7839743874       384.0831318234      -533.7519027468       281.2699303445       344.1242200610        15.0437779096      2334.8159937622     -3097.3446733535      -411.6611514706       161.9317867775     -1343.9639417472 
  115000       296.5699808298     11675.4295476441         0.7610522035       334.6928486728      -550.2099494925       285.6009050853       320.8835452075        15.6304281734      2318.4903201193     -3098.7816028575      -392.0335452205         1.2659349388     -1958.1767762624 
  116000       296.0095869617     11583.3403443057         0.7671026767       268.9606667215      -614.2700333420       260.2434941757       305.0899029437        12.3045378753      2306.7747454419     -3099.2218185409      -399.4608952377       171.0678310472      -579.4836707312 
  117000       300.8413240962     12042.5257905069         0.7378528008       383.8391632965      -513.8084298672       275.7321550078       327.3937230944         7.4341550173      2364.9058744597     -3099.0354010613      -390.2389363851       729.1036203626      1965.8863089601 
  118000       301.5705728024     11587.6313459919         0.7668186119       289.0565611052      -610.7669576825       254.4790472874       302.6781635002        14.9014515520      2337.0833580936     -3098.8604634251      -421.0485146907      -282.4990054391     -3382.1113316592 
  119000       301.7959103674     11701.6012573555         0.7593500401       335.3261916226      -565.1696873322       267.7946393204       319.7768019144         9.0376000449      2324.1620757055     -3100.1444238102      -385.7963805073       245.5417179057      -526.1142401779 
  120000       303.2331430422     11183.4926948275         0.7945291892       323.3583984726      -581.4258822009       248.1022119742       330.7824422104        14.0937518245      2351.5540493337     -3099.5235730490      -426.4347644949       237.4484145325      -526.7327115228 
  121000       310.7561178499     11521.3095941346         0.7712327588       373.0332002663      -554.1980638789       262.5597489400       336.8751535811        11.9962264493      2349.7860325252     -3100.2653767258      -415.1498486487       565.9247813256      1147.9832107637 
  122000       309.4042578089     11140.2619589918         0.7976124275       355.5695416645      -567.6280548461       268.7483852089       310.5295556877        14.3912644622      2359.0508446575     -3098.7955813124      -421.5525235501        82.0629903342     -1683.4353434304 
  123000       301.0690096270     11582.4189712054         0.7671636992       342.8244664613      -555.5024927080       293.5724285329       312.1289393092        10.0098981316      2323.4818528568     -3096.2829709020      -398.4126406365       -41.1835538001     -2273.3438811074 
  124000       307.6240786755     11107.8269087612         0.7999414698       316.2829108000      -601.6030034832       271.0860923904       309.0370920644         9.1546022486      2334.6882822371     -3100.2147509724      -425.3543214512       307.1488303770       -56.3845135710 
  125000       307.0094158772     11206.0467877866         0.7929300628       323.0033789480      -593.0485100958       252.4744880197       330.6071960946         9.4633418988      2320.7466576490     -3098.9605653817      -407.3796283761       318.6344476420       -26.7329505729 
  126000       294.0512375391     11542.0853109461         0.7698445423       271.7432233114      -605.6441716440       242.8869371456       325.0343879605         7.2209828209      2308.9279906860     -3099.1010763476      -390.6133939094       150.4210041828      -720.7425734447 
  127000       291.3133275191     11512.6304235412         0.7718141777       340.7691526564      -528.4488914060       298.5170525826       319.8865669651        25.3401042467      2324.7298102424     -3099.3946782422      -397.5277472005       689.8566849156      2079.1407265477 
  128000       296.9847164230     11528.1290811236         0.7707765346       288.2472376546      -597.8930447827       262.3705448275       310.2480998829         8.9301026138      2331.0035196840     -3100.3278290427      -410.1174827482       672.0347950628      2282.7385365847 
  129000       291.7205179264     11214.7549643252         0.7923143583       261.5975302556      -608.8354848222       253.9069175370       329.9815335926        15.9803909151      2321.8214630985     -3099.5471129553      -430.9786770101       528.4830801781      1631.7716439463 
  130000       315.2416511155     11431.6918567855         0.7772787698       338.6975257601      -601.9176315453       261.7820360578       299.8560850781        16.8565978012      2342.9699849657     -3099.9746884954      -423.4076469528       296.1899511370      -254.9646241272 
  131000       282.1828923170     11222.5833510585         0.7917616743       217.6625731495      -624.3121618084       259.7333681863       286.5378017974        15.5705259528      2324.0343460407     -3098.3423564452      -411.8458473403       249.4816462747       194.4100874740 
  132000       314.8936509422     11392.4318921759         0.7799573847       351.5840684075      -587.9927291617       258.8621010012       304.6377761827        14.0330062780      2356.0109412319     -3099.0086390548      -422.5279148007       409.8532118751       350.7085097190 
  133000       295.1849597398     11696.4160332257         0.7596866731       303.9765747049      -576.7936101910       256.5310943809       316.8228111751        10.1280905836      2329.2115936687     -3098.2369242418      -391.2502757575       -87.2204485805     -2293.3315438849 
  134000       296.7532281998     11577.6329537822         0.7674808330       347.9486599792      -537.5009100137       252.4763387231       343.7364585526         8.8759730208      2365.1307803413     -3099.3878785941      -408.3325820576       629.4210873267      1667.0176267004 
  135000       304.9067641099     11474.6837430926         0.7743665606       311.4046783843      -598.3733375341       241.9350921486       316.3323182605         5.1009056091      2355.3132045171     -3100.0616950830      -416.9931629866       840.6011239793      3162.2798772059 
  136000       299.3920581772     12043.0612590956         0.7378199938       325.0504587709      -568.2728279897       258.5528051158       291.6958551538         8.5420717496      2370.6220000270     -3099.4483879358      -398.2371721002        22.5433588642     -1722.3554643287 
  137000       300.2439993539     11600.8722626488         0.7659433862       280.5509122154      -615.3143888418       227.4316720207       310.7369842669         1.7394218351      2333.0804060381     -3098.6670119879      -389.6358610146        15.8298528366     -1564.6671256922 
  138000       301.8433645561     11466.2501950113         0.7749361153       303.0553857896      -597.5820865397       254.1189393142       308.8995915978        11.9949391096      2325.1555509625     -3097.2509507748      -400.5001567490       367.2329972344       383.7834532136 
  139000       308.9660157480     11415.2159748631         0.7784006368       324.2728196298      -597.6171542251       274.4673524484       301.6426296869        10.8400366141      2330.6574419436     -3099.6972516492      -415.5273632690       -34.7269653545     -2156.4240480360 
  140000       300.9627307150     11742.9820444267         0.7566741863       366.0140273400      -531.9958177831       253.8632301747       339.6375096859        14.5393375740      2368.8293702739     -3098.7855295078      -410.0797359837       499.3327422473       778.4609510977 
  141000       286.4790228612     11225.1242489895         0.7915824526       246.3562911265      -608.4371988827       249.1546039163       299.0610123753         8.2785849468      2330.5130813851     -3098.3572289945      -397.0872525116       631.0043216791      2349.6137060784 
  142000       288.4598918365     11628.9740020996         0.7640924627       326.4074035893      -534.2965851633       292.8819772034       314.4778651763        18.6265922434      2339.4690233809     -3100.2922250037      -399.4598181636       249.3061943942      -454.6151455954 
  143000       302.0771283454     12114.3523548875         0.7334780369       347.0880708680      -554.2469037191       258.3312104007       321.5645917330        15.2302210567      2348.5121607876     -3099.0650156610      -398.8200720362       261.1741079726      -486.2814032095 
  144000       299.9342126025     11317.6873150844         0.7851084003       315.3992360515      -579.5417261282       255.5727844298       302.8223352604        13.3208264891      2351.4938359055     -3098.0414160017      -404.7100922112       543.7593824791      1383.5241117538 
  145000       297.1668824643     11554.8476855380         0.7689942460       329.5382646913      -557.1455631154       258.3718683212       325.0704718453        11.3765754723      2354.3812018008     -3098.3418738204      -408.0038067346        63.7456419750     -1577.2582516302 
  146000       297.9474119316     11630.8599655267         0.7639685638       299.6993501432      -589.3134143538       245.4997564424       309.1736045787        10.9797631745      2352.9937056449     -3098.7418736516      -409.2183705426       273.9184012975      -151.9886581716 
  147000       293.1211892684     11630.5563432121         0.7639885076       319.8922389211      -554.7200865050       248.8775283285       319.3120631359        20.2209219662      2338.8966170536     -3099.0871637847      -382.9400532045       586.1171777973      1569.5398873045 
  148000       295.3898296484     11576.6213020739         0.7675479012       312.1575357210      -569.2239381355       269.8300746035       286.7739226172         9.1524112683      2360.6552956975     -3099.1535925178      -396.4820498043       200.7670634842      -659.7666044420 
  149000       303.2059948762     11630.6476778547         0.7639825081       351.8836053011      -552.8196709229       292.0422616677       314.0586243278        10.9074538862      2330.7610929740     -3099.1768165359      -401.4122872427       -24.2580352534     -2217.5408302863 
  150000       298.8749996560     11559.9325397068         0.7686559894       365.4029235260      -526.3775687452       282.0218449324       330.5328062633        14.8550671822      2334.6112078467     -3099.1587326710      -389.2397622987       524.7025978903       944.8953221533 
  151000       293.9922740824     11374.8682954660         0.7811616937       288.8274492170      -588.3840111153       263.4913778870       315.9575836186        11.5851523274      2346.4701004539     -3099.0519066252      -426.8363187770       231.3373709275      -346.5537748785 
  152000       286.4623038432     11663.7911175107         0.7618116009       306.5389570826      -548.2046468735       269.4949647169       311.8797875023         9.8380760722      2344.5676132707     -3096.4598505642      -387.5252378714       434.0816961395       749.7908161918 
  153000       296.6719055554     11796.7964058225         0.7532224070       311.6060330566      -573.6008871733       264.9433646797       284.0827620707        14.2618352342      2360.6230760160     -3098.1498263178      -399.3620988560        40.5030727302     -1575.7752911809 
  154000       297.0466459913     11269.4437058128         0.7884693882       346.3512097781      -539.9738575393       275.9649716149       326.0385735664        10.6328338102      2362.4553902508     -3098.5235149914      -416.5421117902       120.2366126006     -1375.7839287867 
  155000       297.1745018746     11553.6828032698         0.7690717787       315.2039277468      -571.5026347866       261.0846478208       302.4296116213         5.4345227350      2349.4854459215     -3098.7286721750      -391.2081907103       262.2385725915      -314.3370399506 
  156000       310.0885602615     11192.1306776722         0.7939159790       316.0738200431      -609.1655918713       260.4752497404       318.0067294034         5.6156994415      2327.9083320795     -3100.6698345519      -420.5017679841       294.0701865469      -134.8049193242 
  157000       293.2737557554     11140.4937688302         0.7975958308       300.9033504364      -574.1642014792       269.7470943986       314.0110886071        10.0484166403      2360.4261870121     -3100.1860889810      -428.2108991564       347.6560695524       287.7574291810 
  158000       297.3788552256     11286.3236992328         0.7872901416       329.5111999852      -557.8051102089       271.5610671259       317.8145009132        20.6804223861      2342.1048860875     -3097.5908371032      -412.3751496183       176.6994504498      -928.3855166881 
  159000       288.9249234944     11350.5013750279         0.7828386685       284.3168088397      -577.7747371235       243.8474734941       343.3524454549        13.5466818246      2330.6622563895     -3099.5094087023      -409.6741855843        86.9182055473     -1192.4855919359 
  160000       296.7086906775     11224.2371528005         0.7916450145       322.9391835698      -562.3774957712       256.5261347092       324.7184125386         8.4113938197      2368.6381886505     -3099.4903194054      -421.1813060838       345.3996298769       137.2099664771 
  161000       280.6400229420     11468.9798455478         0.7747516783       270.9314913924      -566.4396440262       261.0465516563       324.2717672040         8.9871069715      2337.9661447658     -3097.8533087015      -400.8579059222       -21.7372183091     -1749.7484357440 
  162000       299.1437336821     11433.5459276064         0.7771527258       328.8204298360      -563.7619085659       275.7856172322       337.8502925827        11.1281182517      2329.5873623559     -3099.0968147161      -419.0164842724       397.7771966363       413.5424157090 
  163000       303.1999734920     11373.4461326325         0.7812593720       339.8249839979      -564.8603256750       270.8918086752       332.1873757439        10.6255796640      2340.1870896878     -3098.2227584551      -420.5294209908       610.7134539981      1633.1367655045 
  164000       284.2303836536     11241.4543484636         0.7904325462       272.9978695791      -575.0861513151       263.6218452493       327.9981539582         6.6500882891      2336.9679195356     -3099.2979910930      -411.0261672543       -20.6517587243     -1791.1463191466 
  165000       296.0004437331     11670.8368620347         0.7613516913       355.4369859063      -527.7664326752       281.3858404954       351.5155551442        13.4915289005      2321.0455712763     -3098.4784098507      -396.7265186409       414.7880964471       348.6992086670 
  166000       304.1154628587     11276.9149286411         0.7879470085       346.2903032864      -561.1266351914       288.1116514647       332.6496739408        14.2617047291      2347.0693386023     -3099.9106765346      -443.3083273938       -80.5906967953     -2595.6171306103 
  167000       293.3086500009     11451.0313094788         0.7759660369       322.4989228511      -552.6727461950       295.3603743801       320.3144089697         6.4173580851      2337.0153207234     -3099.8138349982      -411.9663733552       202.8826446511      -716.2585083132 
  168000       288.8331602434     11161.7543952694         0.7960765906       262.7413190143      -599.0764245994       263.1221725683       322.4752533068        11.9872641861      2320.2249245679     -3099.5247767157      -417.3612625127       718.0034231343      2796.7468001539 
  169000       282.4021107443     11579.0907283641         0.7673842094       323.4107822920      -519.2180546056       284.3040069628       337.8214227669        16.1986571549      2343.0243510886     -3100.6299148634      -399.9365777155       275.6472057031      -282.8436893937 
  170000       289.6284345139     11074.3881723825         0.8023568657       284.8355564443      -579.3551192687       279.2932744029       345.8629074876        14.2091100619      2305.5802198385     -3100.0202664801      -424.2803645796       393.1286089145       670.5095439861 
  171000       306.3531343925     11303.2982974601         0.7861078377       317.5283748256      -596.5653075225       280.5081693801       323.4231008580        16.0238441226      2291.7248705317     -3100.1560677632      -408.0892246517       326.2779930378        53.0772025012 
  172000       292.2457433960     11356.8212050607         0.7824030354       291.7831831933      -580.2169948401       278.1414806565       332.1200850391         5.0002984941      2305.2460233884     -3098.4458559208      -402.2790264973       696.7834947181      2445.2466878130 
  173000       312.8734102914     11357.6090613252         0.7823487616       346.9962280884      -586.5525938918       293.9171019620       330.0281566607         8.3781945845      2295.3825595496     -3098.0513620700      -416.2072445786       -66.1817314245     -2494.4473474794 
  174000       293.2394099318     11235.8111278935         0.7908295434       281.2004389617      -593.7646321994       278.3832225123       342.0590840536         6.8936589670      2301.6097846668     -3099.9565420930      -422.7538403060       417.2995175381       830.5673702341 
  175000       303.2165443748     11386.6519085891         0.7803532992       323.7165493301      -581.0182043914       278.6824383118       347.6187120244         1.9091073726      2303.0630896218     -3100.1069203807      -412.1846313413       258.6276145334      -391.9541168801 
  176000       297.5985452485     11076.4128975694         0.8022101980       276.7105299202      -611.2612893564       273.3128434066       322.8549781478        14.6023167255      2291.6930881036     -3098.7510899142      -414.9734258256       110.0226071000     -1031.8797947606 
  177000       319.9135717985     11134.0321455948         0.7980587147       377.5144744734      -577.0407170648       267.1816851943       324.5700919280        13.2160750932      2327.1229494203     -3099.3654626187      -409.7660560820       290.6266509847      -535.0945876134 
  178000       300.1980504779     11169.4579906979         0.7955275351       300.3793938353      -595.3488053856       286.7543616869       318.3465932704        11.2702995891      2317.7301134499     -3098.4921130682      -430.9580603137       225.6425492203      -458.8035499683 
  179000       294.1450390895     11350.0799394836         0.7828677358       280.9137765440      -596.7535026204       267.6905692470       314.4846365983        11.7622544107      2304.3581804494     -3097.0681763709      -397.9809669548       510.8826874274      1389.2945074069 
  180000       294.7690448321     11543.4740090966         0.7697519288       293.8123978806      -585.7167839150       269.2317266371       319.3783581933         4.4011291969      2335.2909242399     -3099.8251849839      -414.1937371982      -205.5258066108     -2966.0766944109 
  181000       297.4816645086     10973.8113624724         0.8097106001       310.8641555966      -576.7589159965       266.7684423898       322.7646287139        11.6516650713      2364.3656145325     -3099.6563239815      -442.6529427226       125.3958883865     -1158.8740406891 
  182000       303.2222195340     11649.4391644581         0.7627501426       344.1084940317      -560.6431931781       250.0207544077       345.8451124491         5.6842092890      2328.9598901005     -3098.1148680444      -393.0382913800       348.1758255364        23.9402490213 
  183000       296.1648831859     11370.5659494444         0.7814572663       308.9591038440      -574.7349676739       267.5136904467       327.8543673420        13.4864782545      2333.0125109745     -3099.4903067666      -417.1117079250       296.1641178377       -77.1581567967 
  184000       292.2019464489     11335.9759661338         0.7838417627       282.5152919875      -589.3542051155       267.0279394044       325.6804946884         9.8386011378      2312.0895963269     -3098.5852966414      -405.4055400317       198.4953761641      -508.2149497897 
  185000       300.2734960767     11464.9209374933         0.7750259624       312.6400780154      -583.3132350937       277.9804366481       308.5842391970        13.6952463052      2331.6591745948     -3099.2670949019      -415.9652369368       328.9833966429        97.7447171452 
  186000       288.0122793614     10937.5150910094         0.8123976342       242.3961742888      -616.9722324518       260.7320622517       316.6791097094         5.9947110487      2318.7114362174     -3099.1751042086      -419.9144474705       146.0683896518      -603.8888594041 
  187000       307.3222713952     11539.7970047508         0.7699972001       332.8691849730      -584.1161995059       282.2947349419       293.4718530288        17.5960348625      2342.9111609330     -3099.4798715783      -420.9101116937        38.8981946744     -1746.7486518574 
  188000       301.8474015792     11220.5718551842         0.7919036122       292.8621806426      -607.7873373194       248.9092583075       320.4119360431         7.9984058402      2334.7065100828     -3098.8255107417      -420.9879368513       152.9566667754      -854.9563658113 
  189000       306.4846535544     11483.8558210588         0.7737480792       371.0879538212      -543.3981542000       277.3070850615       322.5862797366         7.9520622163      2347.7223138781     -3099.5711228685      -399.3947722240        16.2883844520     -2118.4560737622 
  190000       317.6173292687     11249.5366798271         0.7898646528       322.2021152373      -625.5015688281       275.4344003085       294.7228765057         6.3020950093      2301.1501665708     -3099.3628662071      -403.7482410153       150.5158002014     -1046.4660753818 
  191000       293.7545310653     11426.0630857368         0.7776616772       343.9592320821      -532.5428528089       283.1342560034       346.6523267158        15.1570299955      2327.3537035533     -3099.6832441010      -405.1569249758       512.1006935807      1009.0258931915 
  192000       293.3035076179     10973.5889945323         0.8097270080       232.0909442103      -643.0653810406       232.4483823855       309.4977783158         8.6268557096      2330.3751426035     -3099.7224580635      -424.2910819914       237.7767983664        35.5280307655 
  193000       298.1915819851     11878.1670528046         0.7480625036       374.9775273650      -514.7637895061       293.6350514999       338.2910992980         8.9413279509      2345.5991780556     -3098.0439685695      -403.1864777410       272.8350563785      -589.6319952895 
  194000       315.9295802277     11315.5811834506         0.7852545300       310.9700165463      -631.6977773567       252.2490220403       297.1398116966         9.0349013163      2305.7694968339     -3098.8817148326      -397.0092944113        -0.2216544778     -1885.7113300134 
  195000       318.7155293639     11752.0709885000         0.7560889814       355.5879126708      -595.3925708010       258.6862316524       316.4261802627        16.3571968877      2293.0616816536     -3098.3437833460      -381.5800779114       586.8156757275      1349.1172094097 
  196000       302.8260678969     11143.8754172281         0.7973537976       291.0686333041      -612.5010202717       275.3683457773       298.7991321184        12.8686123839      2331.0210709793     -3098.3050006809      -432.2531808497       483.8528331653      1186.2037690312 
  197000       309.5317419469     11545.8857338116         0.7695911417       359.6856556344      -563.8923268822       265.4679822064       313.8497767583        16.1088348317      2342.2768853373     -3099.3383426526      -402.2574633632       486.8489720898       755.1942966106 
  198000       304.3791185289     11315.3554010604         0.7852701987       330.8143848882      -577.3892469684       273.3287745998       320.4792724441        11.9379545210      2334.3533871040     -3098.6170183272      -418.8716173101       280.2064825800      -306.6720862714 
  199000       316.1655029779     11193.9792352491         0.7937848728       325.6208298471      -617.7509082014       253.7687715381       306.3762718664         8.8127548206      2342.2979196527     -3099.0524045905      -429.9542214886       734.5107845615      2504.6442837682 
  200000       286.8205890151     11438.4551553697         0.7768191826       223.0825861753      -632.7300658020       255.2817872080       300.7025671197         9.5156131499      2332.0985339560     -3100.2927168296      -430.0358504061       102.1925126790      -724.6818400110 
  201000       298.0579746400     11510.4275464070         0.7719618883       319.6608427842      -569.6818177118       268.3636287001       328.8137278824        14.8287770722      2338.2898801432     -3099.3008932442      -420.6769382655      -254.2690174182     -3418.9399721761 
  202000       295.5273317822     11609.0391868575         0.7654045473       295.2169062042      -586.5748452624       260.6755343566       305.2976267394        11.2161606506      2328.5877224284     -3097.4411362608      -394.9107531767       715.9528302705      2485.0631462629 
  203000       319.0835872970     11698.7225866936         0.7595368911       373.7210794775      -578.3576118913       275.7760045502       318.1865587320        10.5338611488      2311.9000032319     -3098.4834692260      -396.2705703282       132.1146412145     -1416.1008095301 
  204000       295.8214378364     11306.1416961662         0.7859101383       294.7071277178      -587.9621747051       262.9658021671       299.8075846878        12.1320854698      2349.6063970131     -3097.4463113602      -415.0277326827       383.8681232912       540.7351429499 
  205000       288.7462622656     11499.3424382917         0.7727060422       331.3390007085      -530.2194575132       284.1776349147       326.4379813433        12.8157039761      2353.9806780352     -3098.5269136433      -409.1045421393       286.9995784632      -264.3876310051 
  206000       295.6624382825     11186.0394260870         0.7943482984       332.3399703975      -549.8549106098       275.0599461876       321.5268738555        17.4589669461      2364.8789686170     -3097.5300916734      -431.2495745427       451.3300198358       729.3876572375 
  207000       314.4209142229     11476.0122820503         0.7742769148       401.3303986472      -536.8358514196       269.9074275582       330.1926926148         8.4168113782      2368.2838153119     -3098.8576344493      -414.7789638334       157.5609294777     -1456.5064689317 
  208000       294.1732767029     11525.7519152930         0.7709355059       321.4318400140      -556.3196942830       260.6509677716       318.1037970128        16.3487677980      2354.0521358997     -3097.8399090600      -407.6354537050       380.4651276771       351.1978218036 
  209000       292.3320813038     11773.5570154091         0.7547091649       313.5466482196      -558.7111440741       274.4012274720       316.7498031362        17.4722252873      2319.8896648679     -3098.6194295261      -388.6046353114      1036.0736248852      4207.9491796628 
  210000       289.4433117417     11213.4705672795         0.7924051105       251.6619896836      -611.9763183939       246.5252355953       317.6874546746        21.1648592587      2327.0812358519     -3098.3657343050      -426.0693694695       517.6700446502      1626.5928194894 
Loop time of 64.4027 on 64 procs for 100000 steps with 1002 atoms

Performance: 134.156 ns/day, 0.179 hours/ns, 1552.730 timesteps/s
99.2% CPU use with 64 MPI tasks x no OpenMP threads

MPI task timing breakdown:
Section |  min time  |  avg time  |  max time  |%varavg| %total
---------------------------------------------------------------
Pair    | 13.319     | 19.995     | 27.688     |  95.0 | 31.05
Bond    | 0.51243    | 0.549      | 0.57938    |   2.1 |  0.85
Kspace  | 17.941     | 25.684     | 32.318     |  83.7 | 39.88
Neigh   | 1.7016     | 1.7111     | 1.7214     |   0.4 |  2.66
Comm    | 13.226     | 13.384     | 13.511     |   2.0 | 20.78
Output  | 0.048529   | 0.048573   | 0.049116   |   0.0 |  0.08
Modify  | 2.1448     | 2.2424     | 2.3174     |   2.4 |  3.48
Other   |            | 0.788      |            |       |  1.22

Nlocal:    15.6562 ave 21 max 9 min
Histogram: 1 3 3 9 8 16 5 6 3 10
Nghost:    4745.41 ave 4867 max 4649 min
Histogram: 4 4 4 19 8 9 10 3 1 2
Neighs:    11999.2 ave 20188 max 5142 min
Histogram: 1 3 12 10 12 13 6 4 1 2

Total # of neighbors = 767947
Ave neighs/atom = 766.414
Ave special neighs/atom = 5
Neighbor list builds = 3786
Dangerous builds = 0
unfix equil
undump equil

# WRITE RESTART FILES, CLEANUP, AND EXIT
write_restart   md-15.end.restart
PPPM initialization ...
WARNING: Using 12-bit tables for long-range coulomb (../kspace.cpp:321)
  G vector (1/distance) = 0.186439
  grid = 8 8 8
  stencil order = 5
  estimated absolute RMS force accuracy = 0.00732095
  estimated relative force accuracy = 2.20468e-05
  using double precision FFTs
  3d grid and FFT values/proc = 343 8
write_data      md-15.end.data pair ii
PPPM initialization ...
WARNING: Using 12-bit tables for long-range coulomb (../kspace.cpp:321)
  G vector (1/distance) = 0.186439
  grid = 8 8 8
  stencil order = 5
  estimated absolute RMS force accuracy = 0.00732095
  estimated relative force accuracy = 2.20468e-05
  using double precision FFTs
  3d grid and FFT values/proc = 343 8
unfix		averages
Total wall time: 0:03:30
