
#===========================================================
# GENERAL PROCEDURES
#===========================================================
units		real	# g/mol, angstroms, fs, kcal/mol, K, atm, charge*angstrom
dimension	3	# 3 dimensional simulation
newton		on	# use Newton's 3rd law
boundary	p p p	# periodic boundary conditions
atom_style	full    # molecular + charge

#===========================================================
# FORCE FIELD DEFINITION
#===========================================================
special_bonds  lj   0.0 0.0 0.0  coul 0.0 0.0 0.0     # NO     1-4 LJ/COUL interactions
pair_style     hybrid lj/cut/coul/long 14.0 14.0 # outer_LJ outer_Coul (cutoff values, see LAMMPS Doc)
kspace_style   pppm 0.0001          # long-range electrostatics sum method
bond_style     harmonic             # parameters needed: k_bond, r0
angle_style    harmonic             # parameters needed: k_theta, theta0
dihedral_style hybrid opls            # parameters needed: V1, V2, V3, V4
pair_modify    shift yes mix arithmetic       # using Lorenz-Berthelot mixing rules

#===========================================================
# SETUP SIMULATIONS
#===========================================================

# READ IN COEFFICIENTS/COORDINATES/TOPOLOGY
read_data ${data_name}
read_data md-2.data
  orthogonal box = (-22.3237 -22.3237 -22.3237) to (22.3237 22.3237 22.3237)
  4 by 4 by 4 MPI processor grid
  reading atoms ...
  1002 atoms
  scanning bonds ...
  1 = max bonds/atom
  scanning angles ...
  6 = max angles/atom
  scanning dihedrals ...
  3 = max dihedrals/atom
  reading bonds ...
  835 bonds
  reading angles ...
  1169 angles
  reading dihedrals ...
  501 dihedrals
  4 = max # of 1-2 neighbors
  3 = max # of 1-3 neighbors
  4 = max # of 1-4 neighbors
  5 = max # of special neighbors
include ${settings_name}
include md-2.in.settings
     # Non-bonded interactions (pair-wise)
     pair_coeff           1          1          lj/cut/coul/long      0.044000             2.056907
     pair_coeff           1          2          lj/cut/coul/long      0.044000             2.056907
     pair_coeff           1          3          lj/cut/coul/long      0.067971             2.400794
     pair_coeff           1          4          lj/cut/coul/long      0.051381             2.275712
     pair_coeff           2          2          lj/cut/coul/long      0.044000             2.056907
     pair_coeff           2          3          lj/cut/coul/long      0.067971             2.400794
     pair_coeff           2          4          lj/cut/coul/long      0.051381             2.275712
     pair_coeff           3          3          lj/cut/coul/long      0.105000             2.744681
     pair_coeff           3          4          lj/cut/coul/long      0.079373             2.619599
     pair_coeff           4          4          lj/cut/coul/long      0.060000             2.494516

     # Stretching interactions
     bond_coeff           1           366.904251           1.096103
     bond_coeff           2           612.219900           0.957501
     bond_coeff           3           368.709924           1.411527

     # Bending interactions
     angle_coeff          1           40.926667            108.205025
     angle_coeff          2           61.328715            112.232133
     angle_coeff          3           49.873049            108.741688

     # Dihedral interactions
     dihedral_coeff       1          opls                  0.105414            -0.205941             0.372587            -0.070860

# SET RUN PARAMETERS
timestep	1.0		# fs
run_style	verlet 		# Velocity-Verlet integrator
neigh_modify every 1 delay 0 check no one 10000 # More relaxed rebuild criteria can be used

# Setting up fixes to scale the charges by 0.0
group charge_1 type 1
501 atoms in group charge_1
group charge_2 type 2
167 atoms in group charge_2
group charge_3 type 3
167 atoms in group charge_3
group charge_4 type 4
167 atoms in group charge_4
variable charge_1 equal 0.0
variable charge_2 equal 0.0
variable charge_3 equal 0.0
variable charge_4 equal -0.0
fix 1 charge_1 adapt 0 atom charge v_charge_1 reset yes
fix 2 charge_2 adapt 0 atom charge v_charge_2 reset yes
fix 3 charge_3 adapt 0 atom charge v_charge_3 reset yes
fix 4 charge_4 adapt 0 atom charge v_charge_4 reset yes

#===========================================================
# RUN CONSTRAINED RELAXATION
#===========================================================

# SET OUTPUTS
thermo_style    custom step temp vol density etotal pe ebond eangle edihed ecoul elong evdwl enthalpy press
thermo_modify   format float %20.10f
thermo ${thermo_freq}
thermo 1000

# DECLARE RELEVANT OUTPUT VARIABLES
variable        my_step equal   step
variable        my_temp equal   temp
variable        my_rho  equal   density
variable        my_pe   equal   pe
variable        my_ebon equal   ebond
variable        my_eang equal   eangle
variable        my_edih equal   edihed
variable        my_evdw equal   evdwl
variable        my_eel  equal   (ecoul+elong)
variable        my_ent  equal   enthalpy
variable        my_P    equal   press
variable        my_vol  equal   vol

fix  averages all ave/time ${dump4avg} $(v_avg_freq/v_dump4avg) ${avg_freq} v_my_temp v_my_rho v_my_vol v_my_pe v_my_edih v_my_evdw v_my_eel v_my_ent v_my_P file thermo.avg
fix  averages all ave/time 100 $(v_avg_freq/v_dump4avg) ${avg_freq} v_my_temp v_my_rho v_my_vol v_my_pe v_my_edih v_my_evdw v_my_eel v_my_ent v_my_P file thermo.avg
fix  averages all ave/time 100 10 ${avg_freq} v_my_temp v_my_rho v_my_vol v_my_pe v_my_edih v_my_evdw v_my_eel v_my_ent v_my_P file thermo.avg
fix  averages all ave/time 100 10 1000 v_my_temp v_my_rho v_my_vol v_my_pe v_my_edih v_my_evdw v_my_eel v_my_ent v_my_P file thermo.avg

# INITIALIZE VELOCITIES AND CREATE THE CONSTRAINED RELAXATION FIX
velocity        all create ${ANNEAL_TEMP} ${vseed} mom yes rot yes     # DRAW VELOCITIES
velocity        all create 10.0 ${vseed} mom yes rot yes     
velocity        all create 10.0 77725 mom yes rot yes     

fix relax all nve/limit 0.01
run             10000
PPPM initialization ...
WARNING: Using 12-bit tables for long-range coulomb (../kspace.cpp:321)
  G vector (1/distance) = 0.156228
  grid = 10 10 10
  stencil order = 5
  estimated absolute RMS force accuracy = 0.0197678
  estimated relative force accuracy = 5.95301e-05
  using double precision FFTs
  3d grid and FFT values/proc = 512 40
Neighbor list info ...
  update every 1 steps, delay 0 steps, check no
  max neighbors/atom: 10000, page size: 100000
  master list distance cutoff = 16
  ghost atom cutoff = 16
  binsize = 8, bins = 6 6 6
  1 neighbor lists, perpetual/occasional/extra = 1 0 0
  (1) pair lj/cut/coul/long, perpetual
      attributes: half, newton on
      pair build: half/bin/newton
      stencil: half/bin/3d/newton
      bin: standard
WARNING: System is not charge neutral, net charge = -15.9979 (../kspace.cpp:302)
WARNING: Using kspace solver on system with no charge (../kspace.cpp:289)
Per MPI rank memory allocation (min/avg/max) = 8.528 | 8.817 | 9.271 Mbytes
Step Temp Volume Density TotEng PotEng E_bond E_angle E_dihed E_coul E_long E_vdwl Enthalpy Press 
       0        10.0000000000     88999.8354552273         0.0998385147       240.9283372696       211.0904286691       175.0902248726        91.9155565822       -43.5482769035         0.0000000000         0.0000000000       -12.3670758822     -3369.1706345592     -2781.3395746778 
    1000        17.2955668163     88999.8354552273         0.0998385147        13.0334363620       -38.5729178239         8.0948523369        16.0533958619       -42.8530498599         0.0000000000         0.0000000000       -19.8681161629       -10.5500170261       -18.1694720083 
    2000        19.7216767635     88999.8354552273         0.0998385147       -35.5762278960       -94.4215867678        13.0777497993        18.4299616697       -41.1490591385         0.0000000000         0.0000000000       -84.7802390983       690.3683785607       559.2917198996 
    3000        22.7086306186     88999.8354552273         0.0998385147      -105.5300752275      -173.2878797114         7.7427554836        12.0163062218       -40.0318513417         0.0000000000         0.0000000000      -153.0150900751       873.1279216764       753.9904689884 
    4000        22.0942050890     88999.8354552273         0.0998385147      -164.4236969545      -230.3481841592         3.2134485199        11.7541686901       -38.8692762534         0.0000000000         0.0000000000      -206.4465251159      -220.7994163423       -43.4337176370 
    5000        21.5853418734     88999.8354552273         0.0998385147      -217.0511744792      -281.4573202721         3.0622153051        11.1055775448       -38.7674182681         0.0000000000         0.0000000000      -256.8576948539      -387.0538734866      -130.9756985171 
    6000        20.4592997690     88999.8354552273         0.0998385147      -259.0011916245      -320.0474632782         2.2819073543        10.8217111565       -39.1878808871         0.0000000000         0.0000000000      -293.9632009020      -259.7713627384        -0.5933652831 
    7000        18.5937497860     88999.8354552273         0.0998385147      -294.6657876285      -350.1456482942         1.8207365410        10.9902892893       -38.7284715237         0.0000000000         0.0000000000      -324.2282026007      -390.8183531408       -74.0791146594 
    8000        19.5880103331     88999.8354552273         0.0998385147      -323.4572106763      -381.9037368749         1.6231126335        10.9347737403       -38.1361614434         0.0000000000         0.0000000000      -356.3254618053      -315.1912415682         6.3683758210 
    9000        18.8834462895     88999.8354552273         0.0998385147      -350.8260491649      -407.1703036098         1.3591294855        11.1201822748       -39.0441625721         0.0000000000         0.0000000000      -380.6054527980      -330.5314712597        15.6356136271 
   10000        17.3168697425     88999.8354552273         0.0998385147      -376.7816911550      -428.4516088172         1.1595180798        10.8801995314       -39.1708894779         0.0000000000         0.0000000000      -401.3204369506      -393.0620804587       -12.5429500451 
Loop time of 12.9606 on 64 procs for 10000 steps with 1002 atoms

Performance: 66.664 ns/day, 0.360 hours/ns, 771.569 timesteps/s
97.6% CPU use with 64 MPI tasks x no OpenMP threads

MPI task timing breakdown:
Section |  min time  |  avg time  |  max time  |%varavg| %total
---------------------------------------------------------------
Pair    | 0.003037   | 0.47316    | 6.0698     | 129.9 |  3.65
Bond    | 0.0011778  | 0.043924   | 0.31439    |  26.8 |  0.34
Kspace  | 0.00046802 | 0.00058039 | 0.00092387 |   0.0 |  0.00
Neigh   | 5.329      | 5.4042     | 5.4308     |   0.8 | 41.70
Comm    | 1.0989     | 6.974      | 7.4651     |  35.5 | 53.81
Output  | 0.005585   | 0.0058031  | 0.0058148  |   0.0 |  0.04
Modify  | 0.01012    | 0.048216   | 0.11101    |  17.3 |  0.37
Other   |            | 0.01072    |            |       |  0.08

Nlocal:    15.6562 ave 197 max 0 min
Histogram: 54 1 3 1 1 2 0 0 1 1
Nghost:    896.531 ave 991 max 774 min
Histogram: 2 3 3 10 4 11 9 14 4 4
Neighs:    4704.84 ave 93986 max 0 min
Histogram: 57 2 0 3 1 0 0 0 0 1

Total # of neighbors = 301110
Ave neighs/atom = 300.509
Ave special neighs/atom = 5
Neighbor list builds = 10000
Dangerous builds not checked
unfix relax

#===========================================================
# RESHAPE BOX FOR CONSTANT DENSITY NVT
#===========================================================
fix dynamics all nvt temp ${ANNEAL_TEMP} ${ANNEAL_TEMP} 100.0
fix dynamics all nvt temp 10.0 ${ANNEAL_TEMP} 100.0
fix dynamics all nvt temp 10.0 10.0 100.0
velocity all create ${ANNEAL_TEMP} ${vseed} mom yes rot yes
velocity all create 10.0 ${vseed} mom yes rot yes
velocity all create 10.0 77725 mom yes rot yes
fix mom all momentum 100 linear 1 1 1 angular

fix reshape  all deform 1 x final -11.611702913823104 11.611702913823104 y final -11.611702913823104 11.611702913823104 z final -11.611702913823104 11.611702913823104 units box
run             10000
PPPM initialization ...
WARNING: Using 12-bit tables for long-range coulomb (../kspace.cpp:321)
  G vector (1/distance) = 0.156228
  grid = 10 10 10
  stencil order = 5
  estimated absolute RMS force accuracy = 0.0197678
  estimated relative force accuracy = 5.95301e-05
  using double precision FFTs
  3d grid and FFT values/proc = 512 40
Per MPI rank memory allocation (min/avg/max) = 8.528 | 8.925 | 9.678 Mbytes
Step Temp Volume Density TotEng PotEng E_bond E_angle E_dihed E_coul E_long E_vdwl Enthalpy Press 
   10000        10.0000000000     88999.8354552273         0.0998385147      -398.6137002167      -428.4516088172         1.1595180798        10.8801995314       -39.1708894779         0.0000000000         0.0000000000      -401.3204369506      -429.4487622282       -23.7563509836 
   11000        10.2951211144     76792.8394411798         0.1157088532      -431.2086446267      -461.9271329110         2.9546203157        12.7896000469       -40.5537956159         0.0000000000         0.0000000000      -437.1175576578      -483.0938751701       -46.3283822576 
   12000        10.3997734977     65756.4024739899         0.1351292201      -449.5931598852      -480.6239089942         2.5008988729        12.1691524107       -40.2132469522         0.0000000000         0.0000000000      -455.0807133256      -494.8579819357       -47.2005308454 
   13000        10.0572979252     55831.5242834630         0.1591504351      -463.2896202006      -493.2984938267         1.9615057586        11.8753132954       -39.5814551540         0.0000000000         0.0000000000      -467.5538577268      -426.0742125351        45.7053886662 
   14000         9.7165059846     46959.2045994046         0.1892198017      -469.1474333336      -498.1394550820         1.8121448160        11.3582660260       -39.0877180570         0.0000000000         0.0000000000      -472.2221478670      -445.7691558728        34.1362560247 
   15000        10.0668759741     39080.4431516202         0.2273672115      -476.9796121068      -507.0170646276         1.6853736289        11.3074016948       -39.7400734178         0.0000000000         0.0000000000      -480.2697665334      -458.2904871361        32.7909197961 
   16000        10.3476453164     32136.2396699152         0.2764981676      -481.7097106146      -512.5849201326         1.4707108692        11.3346076262       -39.6424951194         0.0000000000         0.0000000000      -485.7477435086      -487.1988163913       -11.7119889179 
   17000        10.8543805504     26067.5938840953         0.3408681071      -486.8958629006      -519.2830643785         1.3138819776        11.1696086359       -39.3499228308         0.0000000000         0.0000000000      -492.4166321612      -510.3749169801       -61.7594984440 
   18000         9.1950986971     20815.5055239657         0.4268746379      -498.4068362641      -525.8430877137         1.1981238713        10.8516049525       -39.6291648052         0.0000000000         0.0000000000      -498.2636517323      -490.2352935829        26.9179016148 
   19000         9.9216968465     16320.9743193321         0.5444289789      -505.9775309868      -535.5817993537         0.9868253372        10.7223763715       -39.8466334422         0.0000000000         0.0000000000      -507.4443676203      -527.6578248331       -91.0842304318 
   20000        10.1448230163     12525.0000000000         0.7094300506      -519.9724335542      -550.2424637472         0.9923127246        10.8086327637       -39.5890031457         0.0000000000         0.0000000000      -522.4544060898      -533.2729848073       -72.8141890659 
Loop time of 19.8618 on 64 procs for 10000 steps with 1002 atoms

Performance: 43.501 ns/day, 0.552 hours/ns, 503.479 timesteps/s
97.8% CPU use with 64 MPI tasks x no OpenMP threads

MPI task timing breakdown:
Section |  min time  |  avg time  |  max time  |%varavg| %total
---------------------------------------------------------------
Pair    | 0.0062077  | 1.0908     | 10.95      | 178.4 |  5.49
Bond    | 0.0023789  | 0.045312   | 0.30768    |  32.5 |  0.23
Kspace  | 0.00046062 | 0.00070814 | 0.0013053  |   0.0 |  0.00
Neigh   | 6.2849     | 6.6133     | 6.8627     |   6.1 | 33.30
Comm    | 1.4986     | 7.8803     | 12.38      | 107.1 | 39.68
Output  | 0.00062394 | 0.00066491 | 0.00073099 |   0.0 |  0.00
Modify  | 0.15277    | 4.1884     | 10.562     | 184.2 | 21.09
Other   |            | 0.04231    |            |       |  0.21

Nlocal:    15.6562 ave 36 max 0 min
Histogram: 15 8 4 2 4 9 6 2 9 5
Nghost:    4327.8 ave 5728 max 3003 min
Histogram: 3 4 9 7 12 10 5 8 2 4
Neighs:    10894.7 ave 32672 max 0 min
Histogram: 19 6 7 7 8 6 3 3 3 2

Total # of neighbors = 697260
Ave neighs/atom = 695.868
Ave special neighs/atom = 5
Neighbor list builds = 10000
Dangerous builds not checked
unfix dynamics
unfix reshape
unfix mom

#===========================================================
# RUN RAMPED ANNEAL
#===========================================================

# REINITIALIZE THE VELOCITIES AND CREATE THE ANNEALING FIX
velocity        all create ${ANNEAL_TEMP} ${vseed} mom yes rot yes     # DRAW VELOCITIES
velocity        all create 10.0 ${vseed} mom yes rot yes     
velocity        all create 10.0 77725 mom yes rot yes     

fix mom all momentum 1000 linear 1 1 1 angular # Zero out system linear and angular momentum every ps
fix anneal all nvt temp ${ANNEAL_TEMP} ${FINAL_TEMP} 100.0 # NVT, nose-hoover 100 fs T relaxation
fix anneal all nvt temp 10.0 ${FINAL_TEMP} 100.0 
fix anneal all nvt temp 10.0 298.0 100.0 

# CREATE COORDINATE DUMPS FOR ANNEAL
dump anneal all custom ${coords_freq} anneal.lammpstrj id type x y z mol
dump anneal all custom 1000 anneal.lammpstrj id type x y z mol
dump_modify anneal sort id format float %20.10g

# RUN RAMPED ANNEAL
run ${nSteps_ramp}
run 50000
PPPM initialization ...
WARNING: Using 12-bit tables for long-range coulomb (../kspace.cpp:321)
  G vector (1/distance) = 0.184168
  grid = 8 8 8
  stencil order = 5
  estimated absolute RMS force accuracy = 0.00816917
  estimated relative force accuracy = 2.46012e-05
  using double precision FFTs
  3d grid and FFT values/proc = 343 8
Per MPI rank memory allocation (min/avg/max) = 9.934 | 10.34 | 11.01 Mbytes
Step Temp Volume Density TotEng PotEng E_bond E_angle E_dihed E_coul E_long E_vdwl Enthalpy Press 
   20000        10.0000000000     12525.0000000000         0.7094300506      -520.4099940846      -550.2479026851         1.0445882727        10.8086327637       -39.5890031457         0.0000000000         0.0000000000      -522.5121205758      -506.3453563595        76.9971989111 
   21000        15.6538785564     12525.0000000000         0.7094300506      -489.6597841673      -536.3676839282         6.8594910521        17.6041771007       -39.0018126304         0.0000000000         0.0000000000      -521.8295394507      -577.6639530399      -481.7809479432 
   22000        20.3468354188     12525.0000000000         0.7094300506      -456.7698899702      -517.4805915239         9.1507494345        20.8930326267       -35.0950445988         0.0000000000         0.0000000000      -512.4293289863      -585.7432622044      -706.0678412218 
   23000        26.9743723221     12525.0000000000         0.7094300506      -421.4571462496      -501.9430318400        12.0013959172        24.6554342744       -34.5071203785         0.0000000000         0.0000000000      -504.0927416531      -486.9855624336      -358.7368970215 
   24000        32.7101085979     12525.0000000000         0.7094300506      -377.0905110805      -474.6906341463        16.5058005434        29.0248834604       -33.1447159241         0.0000000000         0.0000000000      -487.0766022259      -534.9126391848      -864.0010519788 
   25000        38.4458495572     12525.0000000000         0.7094300506      -337.5355818259      -452.2499563415        19.8697684436        33.2895882037       -30.1138820188         0.0000000000         0.0000000000      -475.2954309700      -318.4338652709       104.5728086191 
   26000        44.3363228396     12525.0000000000         0.7094300506      -296.2707409272      -428.5610557843        23.4142917798        37.0677545883       -32.4767853672         0.0000000000         0.0000000000      -456.5663167852      -399.5258291520      -565.2724742718 
   27000        51.0031349160     12525.0000000000         0.7094300506      -251.7627673145      -403.9454551106        28.0439407987        43.4352688704       -29.1371408587         0.0000000000         0.0000000000      -446.2875239210      -436.6770053392     -1012.3174620587 
   28000        55.8718187627     12525.0000000000         0.7094300506      -222.5365067189      -389.2463288773        31.4253747313        45.3035878410       -28.9720114285         0.0000000000         0.0000000000      -437.0032800211      -137.3955731612       466.1060970596 
   29000        60.5116353790     12525.0000000000         0.7094300506      -179.0178682099      -359.5719327804        36.1638650891        55.4136658465       -29.4056711852         0.0000000000         0.0000000000      -421.7437925308      -323.1889834487      -789.2682523517 
   30000        65.8886897053     12525.0000000000         0.7094300506      -133.9078613521      -330.5059314755        39.8261567245        62.7083321970       -23.5912953624         0.0000000000         0.0000000000      -409.4491250347       -48.1910831373       469.2585725428 
   31000        71.9313961185     12525.0000000000         0.7094300506      -101.7380889773      -316.3663312664        42.1561724890        66.2397814550       -25.2103935522         0.0000000000         0.0000000000      -399.5518916581      -205.2248822315      -566.5409490517 
   32000        79.3992054726     12525.0000000000         0.7094300506       -44.0737330387      -280.9843566232        51.4407811004        67.0958272702       -21.6803165240         0.0000000000         0.0000000000      -377.8406484698       -56.3086998021       -66.9806210414 
   33000        85.8399403602     12525.0000000000         0.7094300506        -9.6884572114      -265.8168866853        52.2510900399        76.9511957684       -20.2344170134         0.0000000000         0.0000000000      -374.7847554802      -144.9074523914      -740.2596548808 
   34000        89.6631604256     12525.0000000000         0.7094300506        34.1768493740      -233.3592691871        56.2944482169        89.9996195956       -19.8532256109         0.0000000000         0.0000000000      -359.8001113887       100.8790448671       365.1627801982 
   35000        94.8815641970     12525.0000000000         0.7094300506        49.7333731919      -233.3733708463        57.9748687301        83.7678088573       -15.7740888646         0.0000000000         0.0000000000      -359.3419595692        59.7450503550        54.8091684281 
   36000       102.1761927344     12525.0000000000         0.7094300506       103.2950801407      -201.5773098549        71.1002754173        91.5876003306       -13.5304350207         0.0000000000         0.0000000000      -350.7347505822        84.1232667387      -104.9565555012 
   37000       110.3990715238     12525.0000000000         0.7094300506       152.7670243719      -176.6407161989        78.4952306256        98.4569213439       -16.9530483424         0.0000000000         0.0000000000      -336.6398198260       153.7910508575         5.6060577277 
   38000       114.8611152233     12525.0000000000         0.7094300506       189.5590427937      -153.1625029847        77.8065539495       104.9473429288        -7.1282250859         0.0000000000         0.0000000000      -328.7881747771        97.3638886036      -504.7245982834 
   39000       122.7330439503     12525.0000000000         0.7094300506       252.5120025380      -113.6977322272        92.4347907250       112.5762633298       -11.1705713009         0.0000000000         0.0000000000      -307.5382149810      -244.0662076982     -2718.5294051444 
   40000       126.6921750950     12525.0000000000         0.7094300506       271.3537110839      -106.6692430043        89.9200526253       120.9931712654       -13.0759185036         0.0000000000         0.0000000000      -304.5065483914       306.8111312510       194.1125030618 
   41000       134.3319830338     12525.0000000000         0.7094300506       329.5629932825       -71.2555499062       106.0637578287       127.2750583465       -12.1606816353         0.0000000000         0.0000000000      -292.4336844461        37.9262498025     -1596.5723957032 
   42000       137.1369473285     12525.0000000000         0.7094300506       340.9713447661       -68.2166252479       112.4478861172       127.2522979044       -10.8934651235         0.0000000000         0.0000000000      -297.0233441459       304.0601903038      -202.0710065708 
   43000       137.0814648203     12525.0000000000         0.7094300506       358.9179231088       -50.1044987043       108.7949866169       140.5180293767        -8.9949190356         0.0000000000         0.0000000000      -290.4225956623       278.0765780655      -442.5678958955 
   44000       142.0974953374     12525.0000000000         0.7094300506       388.3970788425       -35.5921289812       109.5775104536       142.7497695492       -11.5654536588         0.0000000000         0.0000000000      -276.3539553252       333.2903788700      -301.6829599200 
   45000       153.0129024078     12525.0000000000         0.7094300506       457.1304099235         0.5719102494       120.6638712730       157.6704036152        -2.6824544935         0.0000000000         0.0000000000      -275.0799101453        78.0246535159     -2075.4236195004 
   46000       153.9988494272     12525.0000000000         0.7094300506       467.8147890722         8.3144296932       134.4080653022       157.8022626916        -1.6731793659         0.0000000000         0.0000000000      -282.2227189348       631.7719647099       897.5875178723 
   47000       163.1467018967     12525.0000000000         0.7094300506       498.9974279314        12.2017899648       120.5130174866       165.9039993194         0.5820231037         0.0000000000         0.0000000000      -274.7972499449       576.2544837195       422.9456178006 
   48000       170.4703476779     12525.0000000000         0.7094300506       538.4849018808        29.8370365700       129.1971431235       178.2816840195        -9.1431663879         0.0000000000         0.0000000000      -268.4986241851       570.3604581796       174.5035028067 
   49000       170.8822367453     12525.0000000000         0.7094300506       553.7829817821        43.9061256366       133.1080869607       175.0852764797        -2.3189047523         0.0000000000         0.0000000000      -261.9683330516       562.7055761147        48.8469581697 
   50000       181.5681568995     12525.0000000000         0.7094300506       621.3794575070        79.6180504740       138.4981444753       189.9750410521        -2.4085694151         0.0000000000         0.0000000000      -246.4465656382       896.0067522238      1503.4537576425 
   51000       190.2375876739     12525.0000000000         0.7094300506       654.0453448094        86.4161694699       160.7325824268       171.8754865173         1.2735571284         0.0000000000         0.0000000000      -247.4654566025       520.5779248845      -730.6706138435 
   52000       198.0344497053     12525.0000000000         0.7094300506       706.9676920968       116.0743110911       160.0066751414       194.3498501095         6.0497643104         0.0000000000         0.0000000000      -244.3319784703       722.0745995132        82.7031295082 
   53000       197.3467344997     12525.0000000000         0.7094300506       720.5821790577       131.7407963967       163.6502194420       214.0783006336        -0.8958755210         0.0000000000         0.0000000000      -245.0918481580      1000.8692810817      1534.4385094393 
   54000       215.6461845205     12525.0000000000         0.7094300506       766.8983824981       123.4552681211       145.0590102781       218.6041750476         9.8515103869         0.0000000000         0.0000000000      -250.0594275914       693.7989165221      -400.1847919620 
   55000       206.2387620895     12525.0000000000         0.7094300506       765.2694028453       149.8960695346       177.8667132664       218.0889066292         2.4012247131         0.0000000000         0.0000000000      -248.4607750741       581.9327432221     -1003.6809709983 
   56000       214.5875916039     12525.0000000000         0.7094300506       796.3096962935       156.0252017855       190.0170075114       212.7883940716         7.0480251767         0.0000000000         0.0000000000      -253.8282249742       787.1259470472       -50.2766570520 
   57000       229.2349571334     12525.0000000000         0.7094300506       845.5800735361       161.5909036376       183.4463293153       215.7101925234         4.7413170736         0.0000000000         0.0000000000      -242.3069352747       547.1791078901     -1633.6032933186 
   58000       235.8022790076     12525.0000000000         0.7094300506       858.8579971525       155.2733122708       174.3800608936       226.0151743716         6.0653513819         0.0000000000         0.0000000000      -251.1872743763       925.4268462722       364.4327722565 
   59000       234.5650161373     12525.0000000000         0.7094300506       888.9621070971       189.0691558591       187.1647245688       235.0552520210        14.0697527864         0.0000000000         0.0000000000      -247.2205735171       820.5492300545      -374.5279476565 
   60000       244.2055731060     12525.0000000000         0.7094300506       945.7967509217       217.1383939149       194.8238414634       254.2900055177         9.0783001713         0.0000000000         0.0000000000      -241.0537532374       652.0553730248     -1608.0942676492 
   61000       242.8442055003     12525.0000000000         0.7094300506       912.6246265806       188.0283057926       185.6480899478       244.6779038193         1.7508018675         0.0000000000         0.0000000000      -244.0484898420      1297.1339642400      2105.0056555694 
   62000       254.3798048205     12525.0000000000         0.7094300506       953.0248483467       194.0087117421       189.4349375704       241.8406017365         4.2758393147         0.0000000000         0.0000000000      -241.5426668795      1164.7822619623      1159.2710751398 
   63000       253.0319166000     12525.0000000000         0.7094300506      1000.5873402932       245.5930202412       216.3360338282       270.0113061241         1.2880805868         0.0000000000         0.0000000000      -242.0424002979      1205.5607421884      1122.1318391305 
   64000       273.1821978804     12525.0000000000         0.7094300506      1040.1334629825       225.0149178185       203.3167465947       257.9300057278        10.4219434279         0.0000000000         0.0000000000      -246.6537779318       942.7855743410      -532.9333674844 
   65000       273.2077665130     12525.0000000000         0.7094300506      1087.5645578119       272.3697211957       230.0913725629       268.4222778803        11.6125597413         0.0000000000         0.0000000000      -237.7564889888      1433.8061455914      1895.5079346210 
   66000       283.5451925102     12525.0000000000         0.7094300506      1108.5713112534       262.5317574303       226.9278830681       271.6422419309         6.8603661942         0.0000000000         0.0000000000      -242.8987337630      1346.1552943077      1300.6592532871 
   67000       281.1266844452     12525.0000000000         0.7094300506      1130.6452981808       291.8220666170       219.1278344454       297.0393171619         5.0960969241         0.0000000000         0.0000000000      -229.4411819145       859.1066449080     -1486.5449154613 
   68000       279.9987082142     12525.0000000000         0.7094300506      1183.8441729525       348.3865865570       241.9806037323       331.8991182060         8.9393782381         0.0000000000         0.0000000000      -234.4325136194      1381.9570431435      1084.5736926225 
   69000       285.8809211436     12525.0000000000         0.7094300506      1194.3015434639       341.2926638929       231.1705308357       323.0354469476        15.2159931809         0.0000000000         0.0000000000      -228.1293070713      1381.4905726574      1024.7708612525 
   70000       303.0014056869     12525.0000000000         0.7094300506      1252.3575204972       348.2646956264       258.5376126862       303.3457514979        14.8560813230         0.0000000000         0.0000000000      -228.4747498806      1616.6273401534      1994.2039254419 
Loop time of 57.8814 on 64 procs for 50000 steps with 1002 atoms

Performance: 74.635 ns/day, 0.322 hours/ns, 863.835 timesteps/s
99.0% CPU use with 64 MPI tasks x no OpenMP threads

MPI task timing breakdown:
Section |  min time  |  avg time  |  max time  |%varavg| %total
---------------------------------------------------------------
Pair    | 3.341      | 9.0616     | 17.48      | 114.1 | 15.66
Bond    | 0.12573    | 0.25325    | 0.37104    |  14.5 |  0.44
Kspace  | 0.0024793  | 0.0030094  | 0.0046468  |   0.8 |  0.01
Neigh   | 20.67      | 21.834     | 22.857     |  16.6 | 37.72
Comm    | 16.231     | 25.692     | 32.513     |  80.4 | 44.39
Output  | 0.034511   | 0.03455    | 0.034927   |   0.0 |  0.06
Modify  | 0.50105    | 0.56786    | 0.88068    |   7.4 |  0.98
Other   |            | 0.4353     |            |       |  0.75

Nlocal:    15.6562 ave 26 max 5 min
Histogram: 2 3 7 7 11 11 10 10 1 2
Nghost:    4309.88 ave 4521 max 4119 min
Histogram: 3 4 7 10 10 12 7 7 2 2
Neighs:    10746.3 ave 16949 max 2660 min
Histogram: 2 3 4 7 10 7 10 9 4 8

Total # of neighbors = 687761
Ave neighs/atom = 686.388
Ave special neighs/atom = 5
Neighbor list builds = 50000
Dangerous builds not checked
unfix anneal

# RUN EQUILIBRATION PHASE AT FINAL TEMP
fix anneal all nvt temp ${FINAL_TEMP} ${FINAL_TEMP} 100.0 # NVT, nose-hoover 100 fs T relaxation
fix anneal all nvt temp 298.0 ${FINAL_TEMP} 100.0 
fix anneal all nvt temp 298.0 298.0 100.0 
run ${nSteps_ramp}
run 50000
PPPM initialization ...
WARNING: Using 12-bit tables for long-range coulomb (../kspace.cpp:321)
  G vector (1/distance) = 0.184168
  grid = 8 8 8
  stencil order = 5
  estimated absolute RMS force accuracy = 0.00816917
  estimated relative force accuracy = 2.46012e-05
  using double precision FFTs
  3d grid and FFT values/proc = 343 8
Per MPI rank memory allocation (min/avg/max) = 10.65 | 10.67 | 11.04 Mbytes
Step Temp Volume Density TotEng PotEng E_bond E_angle E_dihed E_coul E_long E_vdwl Enthalpy Press 
   70000       303.0014056869     12525.0000000000         0.7094300506      1252.3575204972       348.2646956264       258.5376126862       303.3457514979        14.8560813230         0.0000000000         0.0000000000      -228.4747498806      1616.6273401534      1994.2039254419 
   71000       285.7102758944     12525.0000000000         0.7094300506      1181.1504004466       328.6506906105       246.2574687877       309.6971630064         8.7417562411         0.0000000000         0.0000000000      -236.0456974247      1716.7629546574      2932.2238639792 
   72000       293.3055872488     12525.0000000000         0.7094300506      1216.3905019192       341.2279714846       239.6448048657       327.1280066428         8.9117078813         0.0000000000         0.0000000000      -234.4565479051      1465.0056450280      1361.0496054265 
   73000       309.7028676292     12525.0000000000         0.7094300506      1275.5310921186       351.4425063554       252.7269296014       319.1457971800        13.2731733405         0.0000000000         0.0000000000      -233.7033937665      1838.2740915738      3080.7501417155 
   74000       302.8973696504     12525.0000000000         0.7094300506      1254.3252052626       350.5428021666       244.3129362969       321.7394944185        14.3861424076         0.0000000000         0.0000000000      -229.8957709564      1556.2478258039      1652.8826780967 
   75000       295.9311273841     12525.0000000000         0.7094300506      1222.4052730272       339.4086799343       259.8357330163       295.3764026241        10.8958639820         0.0000000000         0.0000000000      -226.6993196882      1263.6110938557       225.5822613160 
   76000       293.1978779060     12525.0000000000         0.7094300506      1204.2585061683       329.4173578863       239.3754410115       303.9380243059        16.5564527613         0.0000000000         0.0000000000      -230.4525601925      1230.8684518223       145.6767901580 
   77000       291.9174382750     12525.0000000000         0.7094300506      1189.3499805132       318.3293962990       239.3852539795       296.7701503004        18.2177017496         0.0000000000         0.0000000000      -236.0437097304      1380.4647235136      1046.2622763010 
   78000       303.9483868383     12525.0000000000         0.7094300506      1263.0495230033       356.1311044283       251.1414399913       332.1829223221         9.8548500204         0.0000000000         0.0000000000      -237.0481079055      1538.0629852058      1505.5678408693 
   79000       311.5591268671     12525.0000000000         0.7094300506      1301.0358581956       371.4085830843       269.5045230706       335.4637564976         6.2962341738         0.0000000000         0.0000000000      -239.8559306577      1068.4697416508     -1273.1888218909 
   80000       292.7576119119     12525.0000000000         0.7094300506      1227.1224203182       353.5949336854       277.3828272061       305.8872074154         8.8394283320         0.0000000000         0.0000000000      -238.5145292681      1375.1192773369       810.2123681238 
   81000       298.6271966456     12525.0000000000         0.7094300506      1226.6425167385       335.6014168251       244.5362620730       318.7127698506        18.1867535341         0.0000000000         0.0000000000      -245.8343686326      1125.6061827848      -553.1258504286 
   82000       293.9200609829     12525.0000000000         0.7094300506      1197.5774895904       320.5814980443       247.1932598323       304.5064871027         6.7103452581         0.0000000000         0.0000000000      -237.8285941487      1468.2658910902      1481.8901915947 
   83000       286.6179383042     12525.0000000000         0.7094300506      1199.5231358344       344.3151511961       265.6767128537       305.7797031025         5.5437681720         0.0000000000         0.0000000000      -232.6850329321      1159.1944663234      -220.7802752437 
   84000       293.7035038989     12525.0000000000         0.7094300506      1223.5754529440       347.2256224457       252.3713528332       325.9317762175         4.0602220059         0.0000000000         0.0000000000      -235.1377286108      1198.4184027993      -137.7228786021 
   85000       296.6990628519     12525.0000000000         0.7094300506      1228.4565558367       343.1686039138       264.0457445588       311.7473831259         7.2721212814         0.0000000000         0.0000000000      -239.8966450522       789.2913492316     -2404.2205301442 
   86000       286.0637694760     12525.0000000000         0.7094300506      1190.1493250583       336.5948643043       256.1837038751       310.5447923830        16.1336876887         0.0000000000         0.0000000000      -246.2673196426      1240.5327290552       275.8251620259 
   87000       293.3336702567     12525.0000000000         0.7094300506      1218.5516286266       343.3053043699       248.0823866512       322.3997147324        14.3483927218         0.0000000000         0.0000000000      -241.5251897356      1228.2069678953        52.8583880195 
   88000       304.3809672847     12525.0000000000         0.7094300506      1282.4100114760       374.2008633186       255.8912988224       342.7170587936        10.4535311550         0.0000000000         0.0000000000      -234.8610254525      1292.2343311659        53.7834754167 
   89000       304.3496916806     12525.0000000000         0.7094300506      1263.1432037271       355.0273754316       259.9581336704       330.8907969941         0.6071322532         0.0000000000         0.0000000000      -236.4286874863      1003.8427308698     -1419.5467012038 
   90000       293.6746444635     12525.0000000000         0.7094300506      1238.9355901401       362.6718701614       273.3641008730       318.1442106358         9.6383744015         0.0000000000         0.0000000000      -238.4748157489      1494.4897641558      1399.0374977160 
   91000       300.6908402051     12525.0000000000         0.7094300506      1280.6027375750       383.4041568703       273.9975521076       335.7448399915        12.3289066765         0.0000000000         0.0000000000      -238.6671419054      1281.7844466046         6.4692946228 
   92000       292.0353486614     12525.0000000000         0.7094300506      1233.7643791324       362.3919749851       263.8043769959       319.8353645981        18.4980883721         0.0000000000         0.0000000000      -239.7458549810      1246.5709655680        70.1099667423 
   93000       299.0191842584     12525.0000000000         0.7094300506      1220.4942189625       328.2835099926       245.6304882275       297.2180035114        13.4959000703         0.0000000000         0.0000000000      -228.0608818166      1396.3353097889       962.6462985900 
   94000       300.5687133652     12525.0000000000         0.7094300506      1194.0950143703       297.2608346142       244.5746446562       284.7049109094        10.7390732001         0.0000000000         0.0000000000      -242.7577941516      1147.4749119894      -255.2228764391 
   95000       299.3436430866     12525.0000000000         0.7094300506      1220.9808668199       327.8020405642       252.4515464572       295.4740267248        11.8569690803         0.0000000000         0.0000000000      -231.9805016981      1719.3640992275      2728.4110426157 
   96000       302.2231110267     12525.0000000000         0.7094300506      1235.2596640098       333.4891076324       248.9918011842       314.3766031259         5.9115306226         0.0000000000         0.0000000000      -235.7908273003      1485.7229415764      1371.1672621514 
   97000       284.1273294063     12525.0000000000         0.7094300506      1175.8088416425       328.0323130696       240.2571638664       306.1487094657        13.0843174484         0.0000000000         0.0000000000      -231.4578777110      1496.2825297030      1754.4409452701 
   98000       293.3369047798     12525.0000000000         0.7094300506      1209.1772527811       333.9212773838       258.9134715838       308.6595310498        13.2687237727         0.0000000000         0.0000000000      -246.9204490225      1292.8517398470       458.0780003230 
   99000       305.9537296732     12525.0000000000         0.7094300506      1245.0801258393       332.1781836423       249.8180874257       306.0125278449         9.7011767730         0.0000000000         0.0000000000      -233.3536084013      1441.1307637302      1073.2839520891 
  100000       297.3341804860     12525.0000000000         0.7094300506      1280.2589839452       393.0759738307       262.5021084695       346.3906944050        10.5799469270         0.0000000000         0.0000000000      -226.3967759709      1777.3954498665      2721.5855893754 
  101000       290.7394183694     12525.0000000000         0.7094300506      1228.4589529460       360.9533337593       249.0549548087       327.4284459045        14.7064050766         0.0000000000         0.0000000000      -230.2364720305      1360.5846257162       723.3251866398 
  102000       279.3927548820     12525.0000000000         0.7094300506      1180.6727525215       347.0232041403       258.1889127548       321.0606140881         7.2663836901         0.0000000000         0.0000000000      -239.4927063927      1166.1315984540       -79.6058991356 
  103000       299.4436106953     12525.0000000000         0.7094300506      1249.6765002582       356.1993915652       254.2800342173       317.6569934055        18.8824669471         0.0000000000         0.0000000000      -234.6201030046      1492.7297001676      1330.6006130514 
  104000       299.5796007066     12525.0000000000         0.7094300506      1243.3410478565       349.4581734107       256.3030858171       310.8734341322        19.7700291761         0.0000000000         0.0000000000      -237.4883757147      1650.3280062862      2228.0599333489 
  105000       293.2394072260     12525.0000000000         0.7094300506      1220.9194483179       345.9543852303       240.8672696130       326.7538525800        10.6212635809         0.0000000000         0.0000000000      -232.2880005436      1474.7581807172      1389.6462711563 
  106000       297.9847566310     12525.0000000000         0.7094300506      1254.9012165735       365.7770233037       275.2632637146       315.3087294631        11.1691061469         0.0000000000         0.0000000000      -235.9640760211      1359.8161532670       574.3593548021 
  107000       301.9233015325     12525.0000000000         0.7094300506      1255.5146619550       354.6386744064       269.2288584714       307.9603201623        13.0422989768         0.0000000000         0.0000000000      -235.5928032041      1319.3092187590       349.2448419701 
  108000       289.3643977081     12525.0000000000         0.7094300506      1171.0209077777       307.6180626723       254.1552173617       283.7969867431         9.1291858358         0.0000000000         0.0000000000      -239.4633272684      1447.2092612606      1511.9998115596 
  109000       299.6274085404     12525.0000000000         0.7094300506      1215.3487630775       321.3232400542       241.0446992710       305.6717500208        12.8559774162         0.0000000000         0.0000000000      -238.2491866538      1939.2811372571      3963.1852666414 
  110000       306.4669660686     12525.0000000000         0.7094300506      1247.9309449254       333.4976126627       251.7138659370       303.6175837617        10.4107727227         0.0000000000         0.0000000000      -232.2446097587      1136.9176376264      -607.7450319683 
  111000       279.1716194039     12525.0000000000         0.7094300506      1174.2240416685       341.2343153059       260.4263217283       313.0307524683         7.9910996857         0.0000000000         0.0000000000      -240.2138585764      1354.7291053096       988.1793304067 
  112000       287.8909660634     12525.0000000000         0.7094300506      1219.1648189180       360.1583856870       257.7799336194       331.1523170987        12.7961615927         0.0000000000         0.0000000000      -241.5700266237      1346.9198575628       699.3980445620 
  113000       288.6678574666     12525.0000000000         0.7094300506      1211.3398634667       350.0153487677       267.5571098558       305.0604585324        12.9070959577         0.0000000000         0.0000000000      -235.5093155783      1181.1999949900      -165.0014379049 
  114000       299.3629714432     12525.0000000000         0.7094300506      1275.9438331540       382.7073351245       267.1078460308       334.9577532476         9.0523394248         0.0000000000         0.0000000000      -228.4106035787       935.3112151602     -1864.8014940627 
  115000       309.5400978929     12525.0000000000         0.7094300506      1255.0653993307       331.4624844188       244.5361018159       310.4495881252         8.0778647061         0.0000000000         0.0000000000      -231.6010702284      1499.6475597155      1338.9709441011 
  116000       284.4082594275     12525.0000000000         0.7094300506      1193.1794417320       344.5646767294       253.3638648607       310.5255985419        11.4247925351         0.0000000000         0.0000000000      -230.7495792083       923.5776332906     -1475.9416116534 
  117000       296.0840816455     12525.0000000000         0.7094300506      1202.9913675524       319.5383909324       243.7040784183       300.8801886327         8.2233660065         0.0000000000         0.0000000000      -233.2692421251      1327.2417819297       680.2118943667 
  118000       285.6399082709     12525.0000000000         0.7094300506      1180.9696059235       328.6798583593       270.8680693874       285.5771125221        11.4124027724         0.0000000000         0.0000000000      -239.1777263226      1108.9621385051      -394.2066194844 
  119000       295.8753375340     12525.0000000000         0.7094300506      1224.8904731842       342.0603453360       261.5221812498       310.6233393276        10.1654212907         0.0000000000         0.0000000000      -240.2505965321      1592.3713607077      2011.7829940344 
  120000       291.0933367905     12525.0000000000         0.7094300506      1248.2941910317       379.7325532948       257.9458766608       334.0817706869        14.2766737487         0.0000000000         0.0000000000      -226.5717678016      1168.3056284353      -437.8993177935 
Loop time of 58.3493 on 64 procs for 50000 steps with 1002 atoms

Performance: 74.037 ns/day, 0.324 hours/ns, 856.909 timesteps/s
98.9% CPU use with 64 MPI tasks x no OpenMP threads

MPI task timing breakdown:
Section |  min time  |  avg time  |  max time  |%varavg| %total
---------------------------------------------------------------
Pair    | 5.7296     | 9.0819     | 12.802     |  66.0 | 15.56
Bond    | 0.22486    | 0.25616    | 0.2928     |   2.3 |  0.44
Kspace  | 0.0025024  | 0.0028417  | 0.0043683  |   0.6 |  0.00
Neigh   | 22.367     | 23.702     | 24.396     |   8.2 | 40.62
Comm    | 19.842     | 23.624     | 28.123     |  42.5 | 40.49
Output  | 0.046437   | 0.046477   | 0.046836   |   0.0 |  0.08
Modify  | 0.78401    | 1.2028     | 1.3323     |  10.2 |  2.06
Other   |            | 0.4341     |            |       |  0.74

Nlocal:    15.6562 ave 28 max 9 min
Histogram: 7 8 11 13 8 11 3 1 1 1
Nghost:    4329.98 ave 4417 max 4250 min
Histogram: 4 4 10 7 8 12 7 4 5 3
Neighs:    10739.4 ave 19800 max 4948 min
Histogram: 7 10 8 11 4 10 6 4 2 2

Total # of neighbors = 687319
Ave neighs/atom = 685.947
Ave special neighs/atom = 5
Neighbor list builds = 50000
Dangerous builds not checked
unfix anneal
undump anneal

# RETURN TO LESS FREQUENT NEIGHBOR BUILDS
neigh_modify every 1 delay 10 check yes one 10000 # More relaxed rebuild criteria can be used

#===========================================================
# RUN EQUILIBRIUM SIM
#===========================================================

# UPDATE RUN PARAMETERS AND CREATE FIX
fix equil all nvt temp ${FINAL_TEMP} ${FINAL_TEMP} 100.0 # NVT, nose-hoover 100 fs T relaxation
fix equil all nvt temp 298.0 ${FINAL_TEMP} 100.0 
fix equil all nvt temp 298.0 298.0 100.0 

# CREATE COORDINATE DUMPS FOR EQUILIBRIUM
dump equil all custom ${coords_freq} equil.lammpstrj id type x y z mol
dump equil all custom 1000 equil.lammpstrj id type x y z mol
dump_modify equil sort id format float %20.10g

# RUN EQUIL
run		${nSteps_equil}
run		100000
PPPM initialization ...
WARNING: Using 12-bit tables for long-range coulomb (../kspace.cpp:321)
  G vector (1/distance) = 0.184168
  grid = 8 8 8
  stencil order = 5
  estimated absolute RMS force accuracy = 0.00816917
  estimated relative force accuracy = 2.46012e-05
  using double precision FFTs
  3d grid and FFT values/proc = 343 8
Per MPI rank memory allocation (min/avg/max) = 11.15 | 11.17 | 11.54 Mbytes
Step Temp Volume Density TotEng PotEng E_bond E_angle E_dihed E_coul E_long E_vdwl Enthalpy Press 
  120000       291.0933367905     12525.0000000000         0.7094300506      1248.2941910317       379.7325532948       257.9458766608       334.0817706869        14.2766737487         0.0000000000         0.0000000000      -226.5717678016      1168.3056284353      -437.8993177935 
  121000       295.4033435374     12525.0000000000         0.7094300506      1236.0536124422       354.6318159670       249.7627424206       329.9036269697         7.4365488342         0.0000000000         0.0000000000      -232.4711022575      1028.1476672285     -1138.1861183539 
  122000       297.6678099919     12525.0000000000         0.7094300506      1233.3163482199       345.1378574349       252.2126471586       307.3048053841        12.2320572669         0.0000000000         0.0000000000      -226.6116523747      1396.5293103094       893.5133028293 
  123000       298.9042462001     12525.0000000000         0.7094300506      1281.7766491027       389.9088912607       260.9762460103       346.4558340849        16.5944581299         0.0000000000         0.0000000000      -234.1176469643      1554.7299205505      1494.2892768259 
  124000       299.9881959916     12525.0000000000         0.7094300506      1277.7377480108       382.6357106883       261.8129249315       338.9983775063        13.1609541700         0.0000000000         0.0000000000      -231.3365459195      1086.0964984194     -1049.1446493495 
  125000       284.4618605379     12525.0000000000         0.7094300506      1203.4305799714       354.6558804656       257.9479725887       321.0733069931        13.6395329740         0.0000000000         0.0000000000      -238.0049320902      1662.3125990472      2512.1606962095 
  126000       300.1229419065     12525.0000000000         0.7094300506      1256.8704282441       361.3663372921       276.5514286447       314.3286514120         8.9230914396         0.0000000000         0.0000000000      -238.4368342042       821.3199962899     -2384.4313590153 
  127000       303.0032799059     12525.0000000000         0.7094300506      1332.1323661708       428.0339490223       284.7105460352       365.5630579576        13.4680108146         0.0000000000         0.0000000000      -235.7076657850      1397.9977460243       360.5816127689 
  128000       299.0135011783     12525.0000000000         0.7094300506      1246.6062383445       354.4124864971       259.8076145348       313.3333565031        11.1191699640         0.0000000000         0.0000000000      -229.8476545049      1603.3825350800      1953.1804532310 
  129000       286.8607708494     12525.0000000000         0.7094300506      1229.6800243752       373.7474782078       267.6604634422       332.3707276048        13.3248715096         0.0000000000         0.0000000000      -239.6085843488      1340.3502495715       605.8668207110 
  130000       295.7980431397     12525.0000000000         0.7094300506      1250.2461037605       367.6466062197       260.2983591446       324.1240841045        14.5288312211         0.0000000000         0.0000000000      -231.3046682505       876.9028180885     -2043.8768342851 
  131000       296.7784496583     12525.0000000000         0.7094300506      1269.3924783836       383.8676528334       254.3851729034       336.7227910430        16.5298808433         0.0000000000         0.0000000000      -223.7701919563      1349.5836245224       439.0083662890 
  132000       297.3252271874     12525.0000000000         0.7094300506      1246.6860416293       359.5297462853       247.5291192903       339.2597143115        12.6514777156         0.0000000000         0.0000000000      -239.9105650321      1300.1890101630       292.9032934253 
  133000       298.9728561170     12525.0000000000         0.7094300506      1262.8287300575       370.7562545724       261.3847636894       333.5600818070        11.6458956374         0.0000000000         0.0000000000      -235.8344865613      1374.0764076293       609.0280976867 
  134000       288.5658369628     12525.0000000000         0.7094300506      1212.2684349808       351.2483281284       247.0531392875       328.5417624962        12.2276181105         0.0000000000         0.0000000000      -236.5741917658      1375.2403992542       892.1939544638 
  135000       293.3359898049     12525.0000000000         0.7094300506      1246.9700729087       371.7168276051       266.7418929782       331.5974357159        17.2278580343         0.0000000000         0.0000000000      -243.8503591233      1534.3782583499      1573.4230525930 
  136000       294.9389867370     12525.0000000000         0.7094300506      1236.4900530648       356.4538001664       277.4964122221       302.3495719816        10.5439571682         0.0000000000         0.0000000000      -233.9361412056       892.0805605869     -1885.4780846436 
  137000       289.3208393715     12525.0000000000         0.7094300506      1215.5917293123       352.3188531735       262.1371750204       322.5015113846        12.6098577559         0.0000000000         0.0000000000      -244.9296909874      1622.7536118735      2229.0175597318 
  138000       295.0504258660     12525.0000000000         0.7094300506      1213.4533217479       333.0845577951       255.7777587401       307.7843843854        13.6248181269         0.0000000000         0.0000000000      -244.1024034572      1236.8538420190       128.1067133868 
  139000       302.0800190337     12525.0000000000         0.7094300506      1262.2404620790       360.8968622826       256.7175188042       340.8373866849         9.9994094555         0.0000000000         0.0000000000      -246.6574526620      1184.5333288795      -425.4095774599 
  140000       314.5208276789     12525.0000000000         0.7094300506      1319.6624876838       381.1981167602       279.2567865655       325.8851665871        12.0254100743         0.0000000000         0.0000000000      -235.9692464667      1739.9451321282      2300.8474875498 
  141000       288.0923778821     12525.0000000000         0.7094300506      1194.6627126636       335.0553086890       252.0700363465       306.9389273751        10.3265047693         0.0000000000         0.0000000000      -234.2801598019      1422.3295181070      1246.3674249392 
  142000       302.4484428559     12525.0000000000         0.7094300506      1211.2358329969       308.7929335673       254.3066756142       278.6118954298        14.1024338790         0.0000000000         0.0000000000      -238.2280713557      1244.9521062991       184.5805524978 
  143000       289.3738025050     12525.0000000000         0.7094300506      1217.7750182603       354.3441112080       247.8564162207       321.0528392981        11.5416253982         0.0000000000         0.0000000000      -226.1067697090      1581.6643898198      1992.1211531479 
  144000       293.2685691509     12525.0000000000         0.7094300506      1233.4137825053       358.3617063328       254.0781461403       332.3012838208        16.5716726595         0.0000000000         0.0000000000      -244.5893962878      1353.6510601499       658.2418803996 
  145000       294.3404339180     12525.0000000000         0.7094300506      1232.3162292778       354.0659328101       264.2708111358       325.3095010485         9.2967951061         0.0000000000         0.0000000000      -244.8111744803      1215.4729215118       -92.2090951595 
  146000       309.0677847239     12525.0000000000         0.7094300506      1240.0873456054       317.8937144103       237.3568788440       315.1202857794         3.2983537099         0.0000000000         0.0000000000      -237.8818039229      1403.6239031141       895.2848337664 
  147000       300.0032878343     12525.0000000000         0.7094300506      1241.8125539677       346.6654857427       233.6465600384       330.1474950775         7.4691896944         0.0000000000         0.0000000000      -224.5977590677      1180.4858469484      -335.7345387208 
  148000       305.4595466690     12525.0000000000         0.7094300506      1230.4042691108       318.9768656449       231.9923752143       325.8458289133         8.1332500615         0.0000000000         0.0000000000      -246.9945885443      1619.9298098940      2132.4669807203 
  149000       293.0872214427     12525.0000000000         0.7094300506      1235.3409875806       360.8300150424       258.0974774750       322.1949171749        12.9172246915         0.0000000000         0.0000000000      -232.3796042990      1057.3318126879      -974.5155271738 
  150000       308.8359564788     12525.0000000000         0.7094300506      1299.6430544954       378.1411502991       258.1178689913       337.0028105895        14.0082154043         0.0000000000         0.0000000000      -230.9877446860      1493.1943915992      1059.6014695680 
  151000       300.7332417725     12525.0000000000         0.7094300506      1235.8193741288       338.4942760149       250.7868251268       319.8163844728         8.0795424368         0.0000000000         0.0000000000      -240.1884760216      1199.6062631834      -198.2495504788 
  152000       300.9781481099     12525.0000000000         0.7094300506      1202.3041858516       304.2483384466       234.6324720627       296.7345026507        10.3441756043         0.0000000000         0.0000000000      -237.4628118712       915.3655947171     -1570.8522472193 
  153000       293.2744564380     12525.0000000000         0.7094300506      1184.9102922613       309.8406496554       240.0561490920       295.9520043207         8.0510088071         0.0000000000         0.0000000000      -234.2185125644      1398.0596704114      1166.8914186019 
  154000       309.1453697283     12525.0000000000         0.7094300506      1250.4476375839       328.0225089618       246.2630827467       309.2224274082        13.1610514973         0.0000000000         0.0000000000      -240.6240526904      1261.3246175207        59.5462893616 
  155000       304.6190535226     12525.0000000000         0.7094300506      1272.5841452558       363.6645975581       238.5482268043       332.3724544686        24.8052554363         0.0000000000         0.0000000000      -232.0613391512      1101.0776974728      -938.9161905598 
  156000       303.3133087042     12525.0000000000         0.7094300506      1223.2429572435       318.2194790004       248.4509171351       305.4957310541        13.0032168520         0.0000000000         0.0000000000      -248.7303860409      1346.0017530185       672.0459923034 
  157000       289.7471057513     12525.0000000000         0.7094300506      1183.5887284830       319.0439626162       253.2060881415       288.8844227483        16.1208250979         0.0000000000         0.0000000000      -239.1673733715      1398.8581496214      1178.4976451438 
  158000       296.8011535843     12525.0000000000         0.7094300506      1261.4913958637       375.8988265464       272.6193101969       321.0608168290        20.2702272115         0.0000000000         0.0000000000      -238.0515276909      1199.3599465099      -340.1401200672 
  159000       315.0123044439     12525.0000000000         0.7094300506      1290.2741052239       350.3432704208       254.2301732306       317.3844126398        12.4530315162         0.0000000000         0.0000000000      -233.7243469658      1480.3355005324      1040.4956989218 
  160000       291.8036479892     12525.0000000000         0.7094300506      1222.5367504541       351.8556926547       256.9782551926       325.4342649743         7.4437203061         0.0000000000         0.0000000000      -238.0005478184      1291.0576287170       375.1192029458 
  161000       300.0213010129     12525.0000000000         0.7094300506      1214.4647476422       319.2639318596       250.6763327966       298.8519583844        10.5741168479         0.0000000000         0.0000000000      -240.8384761693      1865.3145006394      3563.0926919089 
  162000       301.1034492549     12525.0000000000         0.7094300506      1232.9665436835       334.5368238672       249.7250265487       311.6446392316        11.7394958469         0.0000000000         0.0000000000      -238.5723377600      1267.5230941733       189.1806702559 
  163000       300.0208870676     12525.0000000000         0.7094300506      1248.9659323632       353.7663517069       244.2108805420       333.2816248557        12.0467943280         0.0000000000         0.0000000000      -235.7729480189      1555.5708102273      1678.5158088952 
  164000       302.9131463567     12525.0000000000         0.7094300506      1281.2314715410       377.4019940527       271.5050586383       341.8583776944         8.3464037829         0.0000000000         0.0000000000      -244.3078460629      1514.7584281408      1278.4489639781 
  165000       296.0540881194     12525.0000000000         0.7094300506      1231.4068682329       348.0433860218       252.4150772775       319.9426285385         9.6652074449         0.0000000000         0.0000000000      -233.9795272391      1774.0024536936      2970.4526372082 
  166000       288.6169365235     12525.0000000000         0.7094300506      1202.1722072006       340.9996299462       244.8707113071       313.1492519853        13.1139884376         0.0000000000         0.0000000000      -230.1343217838      1763.9149004619      3075.2739412980 
  167000       282.1385568038     12525.0000000000         0.7094300506      1216.4876707924       374.6452237333       249.9354800898       337.6328750035        15.4533951677         0.0000000000         0.0000000000      -228.3765265277      1142.9532531002      -402.5659456365 
  168000       297.5903399943     12525.0000000000         0.7094300506      1258.8444655268       370.8971290127       273.8196105992       318.1274538117        14.9698177758         0.0000000000         0.0000000000      -236.0197531740      1767.1121885988      2782.5239254853 
  169000       311.0326689643     12525.0000000000         0.7094300506      1285.6441666170       357.5877317844       241.0303025550       349.0722757204        11.2876646212         0.0000000000         0.0000000000      -243.8025111121      1498.9367961629      1167.6756518279 
  170000       301.9402178125     12525.0000000000         0.7094300506      1219.4581790314       318.5317168408       229.7243215115       333.9223949654         4.9421272876         0.0000000000         0.0000000000      -250.0571269237      1128.0864621318      -500.2166709488 
  171000       302.2362706910     12525.0000000000         0.7094300506      1286.3657574031       384.5559353396       277.1208854235       333.9804215165        16.3063586468         0.0000000000         0.0000000000      -242.8517302471      1659.8340223416      2044.5610362982 
  172000       299.2769025098     12525.0000000000         0.7094300506      1272.3383928465       379.3587065138       270.5749481882       333.1968805413        10.4146507070         0.0000000000         0.0000000000      -234.8277729226      1421.4953749249       816.5635007824 
  173000       295.5625691669     12525.0000000000         0.7094300506      1199.1258826718       317.2289902188       246.4203258800       302.3529454075         7.3227202808         0.0000000000         0.0000000000      -238.8670013496      1097.0428134145      -558.8562281284 
  174000       291.7356973295     12525.0000000000         0.7094300506      1218.0991049601       347.6207977180       241.4899219524       318.3236010901        13.4710311396         0.0000000000         0.0000000000      -225.6637564642      1023.4145866090     -1065.8050976745 
  175000       285.2398123053     12525.0000000000         0.7094300506      1210.3691266760       359.2731817972       244.1901561509       340.8414559573        14.1949371168         0.0000000000         0.0000000000      -239.9533674277      1141.7557430555      -375.6256257599 
  176000       305.7879580041     12525.0000000000         0.7094300506      1244.5365524216       332.1292382158       259.2508907563       299.3740662074        15.1956355468         0.0000000000         0.0000000000      -241.6913542948      1675.4499110122      2359.0455888930 
  177000       314.1027792269     12525.0000000000         0.7094300506      1290.7314598360       353.5144580624       261.5492985890       313.3323948447        10.3098222229         0.0000000000         0.0000000000      -231.6770575942      1438.0162616077       806.3142044772 
  178000       293.4438480238     12525.0000000000         0.7094300506      1259.5685933607       383.9935216893       263.7833988169       337.8157476767         7.0587748514         0.0000000000         0.0000000000      -224.6643996556      1826.5417267827      3103.9081122821 
  179000       300.7057197558     12525.0000000000         0.7094300506      1199.0446153977       301.8016372257       230.5627783938       306.1097403468        10.9028155348         0.0000000000         0.0000000000      -245.7736970497      1421.3468755661      1216.9990922687 
  180000       288.9972393640     12525.0000000000         0.7094300506      1192.6765746591       330.3692532652       262.5154001001       284.2921966749        19.7082765904         0.0000000000         0.0000000000      -236.1466201002      1271.7293992058       432.7765972412 
  181000       302.5856384451     12525.0000000000         0.7094300506      1232.5225673781       329.6703050033       252.2608174661       302.6945594131        15.3178627461         0.0000000000         0.0000000000      -240.6029346221      1137.3949080035      -520.7786687406 
  182000       302.2493681872     12525.0000000000         0.7094300506      1238.3425465807       336.4936443277       250.5987169373       300.3980028985        14.7110834497         0.0000000000         0.0000000000      -229.2141589577      1205.9268580557      -177.4604697239 
  183000       306.1933247860     12525.0000000000         0.7094300506      1218.1647236496       304.5478797449       228.3061514531       301.8724609130        12.5354048392         0.0000000000         0.0000000000      -238.1661374604      1578.0189985677      1970.0309191301 
  184000       291.6946687022     12525.0000000000         0.7094300506      1187.0845221950       316.7286357960       250.9096940475       293.7522846251         9.4526398206         0.0000000000         0.0000000000      -237.3859826972      1177.3225934896       -53.4419144653 
  185000       300.1634537896     12525.0000000000         0.7094300506      1254.0267765798       358.4018066414       247.4669836975       324.0918733525        22.0047033569         0.0000000000         0.0000000000      -235.1617537655      1372.6604922229       649.4631414935 
  186000       311.1414319312     12525.0000000000         0.7094300506      1297.6092504925       369.2282897132       272.1432847916       327.3047299923         7.5526196189         0.0000000000         0.0000000000      -237.7723446896      1212.8621146750      -463.9502418196 
  187000       302.8157564038     12525.0000000000         0.7094300506      1254.8773676878       351.3384814509       246.4413019424       319.8108262034        10.5891197729         0.0000000000         0.0000000000      -225.5027664678      1631.3415365820      2060.9621848596 
  188000       301.9394588326     12525.0000000000         0.7094300506      1240.9013454320       339.9771478790       251.6673176410       310.2931779855        16.4090907873         0.0000000000         0.0000000000      -238.3924385348      1169.4239169078      -391.3049087569 
  189000       301.8770933276     12525.0000000000         0.7094300506      1269.6223470847       368.8842351553       261.7897132299       336.0092223152        12.7191383244         0.0000000000         0.0000000000      -241.6338387142      1408.3365871287       759.3944573052 
  190000       300.9281092615     12525.0000000000         0.7094300506      1231.1569293874       333.2503874409       237.9051863307       318.5647179736        14.9402777345         0.0000000000         0.0000000000      -238.1597945980       995.9436459366     -1287.6808010511 
  191000       287.4176346267     12525.0000000000         0.7094300506      1186.1256283317       328.5315171153       248.4082034603       304.9720048879        15.0271215023         0.0000000000         0.0000000000      -239.8758127351      1312.6696608032       692.7683620183 
  192000       292.3547364663     12525.0000000000         0.7094300506      1210.0213375538       337.6959469934       266.2686076701       292.5019219477        10.7756120480         0.0000000000         0.0000000000      -231.8501946725      1183.4712058235      -145.3493373882 
  193000       287.2785519911     12525.0000000000         0.7094300506      1212.1398688764       354.9607511570       248.0248768938       327.9558093378         7.9149222217         0.0000000000         0.0000000000      -228.9348572963      1428.4644630579      1184.2742154526 
  194000       301.2441964764     12525.0000000000         0.7094300506      1260.1872035189       361.3375234294       262.6280321189       304.7751393755        15.8162150102         0.0000000000         0.0000000000      -221.8818630753      1709.1292512086      2457.7440827895 
  195000       300.2840582487     12525.0000000000         0.7094300506      1232.7721935399       336.7873651186       259.1966968480       303.7728573956        17.8376044792         0.0000000000         0.0000000000      -244.0197936042      1260.9946203596       154.5043572437 
  196000       301.8101405800     12525.0000000000         0.7094300506      1269.3405044289       368.8021654958       262.8563585904       321.3102321445        16.4785739798         0.0000000000         0.0000000000      -231.8429992189      1196.4115721557      -399.2512010870 
  197000       300.9243577981     12525.0000000000         0.7094300506      1235.1594041151       337.2640557508       264.4453434843       301.2509912163         5.1676034119         0.0000000000         0.0000000000      -233.5998823618      1431.6795502188      1075.8542861398 
  198000       295.2920167283     12525.0000000000         0.7094300506      1224.5708767705       343.4812562108       262.2831912207       300.5643242382        13.5762854956         0.0000000000         0.0000000000      -232.9425447438      1182.2406814534      -231.7376766094 
  199000       300.3197583726     12525.0000000000         0.7094300506      1203.1415754086       307.0502252841       241.4205369386       289.8147385600         9.6658180263         0.0000000000         0.0000000000      -233.8508682408      1334.2339035434       717.6681164762 
  200000       301.3880148065     12525.0000000000         0.7094300506      1234.1858410943       334.9070371862       251.5279465223       297.0700112688        16.3489905685         0.0000000000         0.0000000000      -230.0399111734      1409.0211728766       957.1402464117 
  201000       297.7242491874     12525.0000000000         0.7094300506      1246.5264600689       358.1795665283       258.8333204505       310.8335887547         8.1230088466         0.0000000000         0.0000000000      -219.6103515237      1664.2244684810      2286.6978351673 
  202000       292.5006049678     12525.0000000000         0.7094300506      1220.4464312086       347.6857995466       264.9001397217       301.3048202600        16.6890849941         0.0000000000         0.0000000000      -235.2082454293      1269.0632958264       266.1541995298 
  203000       290.7204894258     12525.0000000000         0.7094300506      1180.2107751385       312.7616359606       259.2062823453       288.0333005124         2.7373645561         0.0000000000         0.0000000000      -237.2153114532       994.6766705003     -1015.7109368051 
  204000       290.0541100000     12525.0000000000         0.7094300506      1175.7052497669       310.2444474290       232.5195395585       287.4416851703        18.4221817140         0.0000000000         0.0000000000      -228.1389590137       954.0969041861     -1213.2002400999 
  205000       307.5943472804     12525.0000000000         0.7094300506      1257.3117211185       339.5145191001       262.9266581496       295.0208541197         8.4620336170         0.0000000000         0.0000000000      -226.8950267863      1576.9777878160      1750.0196026134 
  206000       309.5993045383     12525.0000000000         0.7094300506      1223.6908292713       299.9112541120       232.6048137261       296.9893563066         6.8279984291         0.0000000000         0.0000000000      -236.5109143498      1636.2421172373      2258.5219897833 
  207000       292.7775088501     12525.0000000000         0.7094300506      1167.1833439228       293.5964889878       244.0958078566       267.2200627030        12.6302794309         0.0000000000         0.0000000000      -230.3496610027      1117.1994875125      -273.6378291133 
  208000       291.7284009299     12525.0000000000         0.7094300506      1217.3313935966       346.8748572849       260.5499799541       304.2741874943         8.9044789279         0.0000000000         0.0000000000      -226.8537890913      1221.8241783699        24.5958587497 
  209000       302.2991109796     12525.0000000000         0.7094300506      1259.7789746733       357.7816503313       271.5517618232       314.5948971815        12.8571505822         0.0000000000         0.0000000000      -241.2221592556      1418.6820990903       869.9189924005 
  210000       309.2245286102     12525.0000000000         0.7094300506      1273.9872741250       351.3259519547       258.1620883092       316.1296976144        14.1571933694         0.0000000000         0.0000000000      -237.1230273384      1215.1503890134      -322.1039485538 
  211000       300.1968708209     12525.0000000000         0.7094300506      1259.2213724433       363.4966930723       253.0838867571       323.5409468203        15.0788461593         0.0000000000         0.0000000000      -228.2069866644      1338.0821654540       431.7253159588 
  212000       295.4249007896     12525.0000000000         0.7094300506      1225.1032871817       343.6171683744       268.9268183503       300.9168185205         9.0418553390         0.0000000000         0.0000000000      -235.2683238354      1355.7216751436       715.0735195533 
  213000       304.2595617899     12525.0000000000         0.7094300506      1189.6351228944       281.7882233428       239.6120683704       263.3027518972        11.3428252105         0.0000000000         0.0000000000      -232.4694221353      1547.1004011603      1956.9522992596 
  214000       283.4797573920     12525.0000000000         0.7094300506      1150.8169461644       304.9726370490       226.6667765458       303.1286517168        10.2015653088         0.0000000000         0.0000000000      -235.0243565224      1113.6385938849      -203.5337874743 
  215000       296.6189796197     12525.0000000000         0.7094300506      1209.3667751339       324.3177748273       248.6296485646       306.6513097817         4.8211452806         0.0000000000         0.0000000000      -235.7843287995      1443.0349309059      1279.2219622560 
  216000       305.2483595160     12525.0000000000         0.7094300506      1249.4179271330       338.6206619639       257.4417885796       304.0921046443        15.2139735204         0.0000000000         0.0000000000      -238.1272047804      1164.6131582498      -464.2657554301 
  217000       296.9995487716     12525.0000000000         0.7094300506      1235.8970980253       349.7125589616       239.6613196857       330.3779100117        12.6206467248         0.0000000000         0.0000000000      -232.9473174606      1511.9890195294      1511.4718923625 
  218000       293.8322438780     12525.0000000000         0.7094300506      1246.9980860252       370.2641223541       264.4926970228       316.7248058144        17.0886557401         0.0000000000         0.0000000000      -228.0420362232      1038.8287131815     -1139.6282592766 
  219000       292.2436767036     12525.0000000000         0.7094300506      1231.0711891015       359.0771776458       234.7286412238       335.0251623336        21.2183415543         0.0000000000         0.0000000000      -231.8949674659      1302.2749492622       389.8067046911 
  220000       295.0320273326     12525.0000000000         0.7094300506      1231.6898646147       351.3759980378       248.2222144589       325.0130715775         9.5459500748         0.0000000000         0.0000000000      -231.4052380735      1215.9612301715       -86.1067891323 
Loop time of 49.73 on 64 procs for 100000 steps with 1002 atoms

Performance: 173.738 ns/day, 0.138 hours/ns, 2010.859 timesteps/s
99.0% CPU use with 64 MPI tasks x no OpenMP threads

MPI task timing breakdown:
Section |  min time  |  avg time  |  max time  |%varavg| %total
---------------------------------------------------------------
Pair    | 10.024     | 16.45      | 23.407     |  96.7 | 33.08
Bond    | 0.4609     | 0.48888    | 0.525      |   2.4 |  0.98
Kspace  | 0.0048089  | 0.0054914  | 0.0078592  |   0.6 |  0.01
Neigh   | 1.7167     | 1.8372     | 1.8951     |   2.5 |  3.69
Comm    | 22.009     | 29.026     | 35.475     |  72.8 | 58.37
Output  | 0.055924   | 0.055987   | 0.056541   |   0.0 |  0.11
Modify  | 0.93933    | 1.1571     | 1.2573     |   5.4 |  2.33
Other   |            | 0.7094     |            |       |  1.43

Nlocal:    15.6562 ave 27 max 7 min
Histogram: 4 5 8 12 9 6 10 7 0 3
Nghost:    4310.78 ave 4448 max 4113 min
Histogram: 3 2 1 8 7 12 8 8 9 6
Neighs:    10737.1 ave 24581 max 2507 min
Histogram: 5 8 10 19 5 9 3 4 0 1

Total # of neighbors = 687177
Ave neighs/atom = 685.805
Ave special neighs/atom = 5
Neighbor list builds = 4223
Dangerous builds = 0
unfix equil
undump equil

# WRITE RESTART FILES, CLEANUP, AND EXIT
write_restart   md-2.end.restart
PPPM initialization ...
WARNING: Using 12-bit tables for long-range coulomb (../kspace.cpp:321)
  G vector (1/distance) = 0.184168
  grid = 8 8 8
  stencil order = 5
  estimated absolute RMS force accuracy = 0.00816917
  estimated relative force accuracy = 2.46012e-05
  using double precision FFTs
  3d grid and FFT values/proc = 343 8
write_data      md-2.end.data pair ii
PPPM initialization ...
WARNING: Using 12-bit tables for long-range coulomb (../kspace.cpp:321)
  G vector (1/distance) = 0.184168
  grid = 8 8 8
  stencil order = 5
  estimated absolute RMS force accuracy = 0.00816917
  estimated relative force accuracy = 2.46012e-05
  using double precision FFTs
  3d grid and FFT values/proc = 343 8
unfix		averages
Total wall time: 0:03:18
