
#===========================================================
# GENERAL PROCEDURES
#===========================================================
units		real	# g/mol, angstroms, fs, kcal/mol, K, atm, charge*angstrom
dimension	3	# 3 dimensional simulation
newton		on	# use Newton's 3rd law
boundary	p p p	# periodic boundary conditions
atom_style	full    # molecular + charge

#===========================================================
# FORCE FIELD DEFINITION
#===========================================================
special_bonds  lj   0.0 0.0 0.0  coul 0.0 0.0 0.0     # NO     1-4 LJ/COUL interactions
pair_style     hybrid lj/cut/coul/long 14.0 14.0 # outer_LJ outer_Coul (cutoff values, see LAMMPS Doc)
kspace_style   pppm 0.0001          # long-range electrostatics sum method
bond_style     harmonic             # parameters needed: k_bond, r0
angle_style    harmonic             # parameters needed: k_theta, theta0
dihedral_style hybrid opls            # parameters needed: V1, V2, V3, V4
pair_modify    shift yes mix arithmetic       # using Lorenz-Berthelot mixing rules

#===========================================================
# SETUP SIMULATIONS
#===========================================================

# READ IN COEFFICIENTS/COORDINATES/TOPOLOGY
read_data ${data_name}
read_data md-13.data
  orthogonal box = (-11.1676 -11.1676 -11.1676) to (11.1676 11.1676 11.1676)
  4 by 4 by 4 MPI processor grid
  reading atoms ...
  1002 atoms
  reading velocities ...
  1002 velocities
  scanning bonds ...
  1 = max bonds/atom
  scanning angles ...
  6 = max angles/atom
  scanning dihedrals ...
  3 = max dihedrals/atom
  reading bonds ...
  835 bonds
  reading angles ...
  1169 angles
  reading dihedrals ...
  501 dihedrals
  4 = max # of 1-2 neighbors
  3 = max # of 1-3 neighbors
  4 = max # of 1-4 neighbors
  5 = max # of special neighbors
include ${settings_name}
include md-13.in.settings
     # Non-bonded interactions (pair-wise)
     pair_coeff           1          1          lj/cut/coul/long     0.010108             2.470064
     pair_coeff           1          2          lj/cut/coul/long     0.002075             2.248466
     pair_coeff           1          3          lj/cut/coul/long     0.029469             3.135868
     pair_coeff           1          4          lj/cut/coul/long     0.040515             2.733154
     pair_coeff           2          2          lj/cut/coul/long     0.001000             1.775391
     pair_coeff           2          3          lj/cut/coul/long     0.003837             3.079595
     pair_coeff           2          4          lj/cut/coul/long     0.006184             2.613894
     pair_coeff           3          3          lj/cut/coul/long     0.204250             3.446072
     pair_coeff           3          4          lj/cut/coul/long     0.180732             3.232409
     pair_coeff           4          4          lj/cut/coul/long     0.204824             2.909485

     # Stretching interactions
     bond_coeff           1           366.904251           1.096103
     bond_coeff           2           612.219900           0.957501
     bond_coeff           3           368.709924           1.411527

     # Bending interactions
     angle_coeff          1           40.926667            108.205025
     angle_coeff          2           61.328715            112.232133
     angle_coeff          3           49.873049            108.741688

     # Dihedral interactions
     dihedral_coeff       1          opls                  0.105414            -0.205941             0.372587            -0.070860

# SET RUN PARAMETERS
timestep	1.0		# fs
run_style	verlet 		# Velocity-Verlet integrator
neigh_modify every 1 delay 0 check no one 10000 # More relaxed rebuild criteria can be used

#===========================================================
# RUN CONSTRAINED RELAXATION
#===========================================================

# SET OUTPUTS
thermo_style    custom step temp vol density etotal pe ebond eangle edihed ecoul elong evdwl enthalpy press
thermo_modify   format float %20.10f
thermo ${thermo_freq}
thermo 1000

# DECLARE RELEVANT OUTPUT VARIABLES
variable        my_step equal   step
variable        my_temp equal   temp
variable        my_rho  equal   density
variable        my_pe   equal   pe
variable        my_ebon equal   ebond
variable        my_eang equal   eangle
variable        my_edih equal   edihed
variable        my_evdw equal   evdwl
variable        my_eel  equal   (ecoul+elong)
variable        my_ent  equal   enthalpy
variable        my_P    equal   press
variable        my_vol  equal   vol

fix  averages all ave/time ${dump4avg} $(v_avg_freq/v_dump4avg) ${avg_freq} v_my_temp v_my_rho v_my_vol v_my_pe v_my_edih v_my_evdw v_my_eel v_my_ent v_my_P file thermo.avg
fix  averages all ave/time 100 $(v_avg_freq/v_dump4avg) ${avg_freq} v_my_temp v_my_rho v_my_vol v_my_pe v_my_edih v_my_evdw v_my_eel v_my_ent v_my_P file thermo.avg
fix  averages all ave/time 100 10 ${avg_freq} v_my_temp v_my_rho v_my_vol v_my_pe v_my_edih v_my_evdw v_my_eel v_my_ent v_my_P file thermo.avg
fix  averages all ave/time 100 10 1000 v_my_temp v_my_rho v_my_vol v_my_pe v_my_edih v_my_evdw v_my_eel v_my_ent v_my_P file thermo.avg

# INITIALIZE VELOCITIES AND CREATE THE CONSTRAINED RELAXATION FIX
velocity        all create ${ANNEAL_TEMP} ${vseed} mom yes rot yes     # DRAW VELOCITIES
velocity        all create 100.0 ${vseed} mom yes rot yes     
velocity        all create 100.0 39635 mom yes rot yes     

fix relax all nve/limit 0.01
run             10000
PPPM initialization ...
WARNING: Using 12-bit tables for long-range coulomb (../kspace.cpp:321)
  G vector (1/distance) = 0.186569
  grid = 8 8 8
  stencil order = 5
  estimated absolute RMS force accuracy = 0.00727475
  estimated relative force accuracy = 2.19077e-05
  using double precision FFTs
  3d grid and FFT values/proc = 343 8
Neighbor list info ...
  update every 1 steps, delay 0 steps, check no
  max neighbors/atom: 10000, page size: 100000
  master list distance cutoff = 16
  ghost atom cutoff = 16
  binsize = 8, bins = 3 3 3
  1 neighbor lists, perpetual/occasional/extra = 1 0 0
  (1) pair lj/cut/coul/long, perpetual
      attributes: half, newton on
      pair build: half/bin/newton
      stencil: half/bin/3d/newton
      bin: standard
Per MPI rank memory allocation (min/avg/max) = 8.547 | 8.695 | 9.161 Mbytes
Step Temp Volume Density TotEng PotEng E_bond E_angle E_dihed E_coul E_long E_vdwl Enthalpy Press 
       0       100.0000000000     11142.2301506208         0.7974715352      -266.6199822631      -564.9990682680       290.4834917745       330.9452257482        14.0304225653      2320.8530498665     -3103.0557728221      -418.2554854004      -663.2767140923     -2440.9945794465 
    1000        26.9676904797     11142.2301506208         0.7974715352     -1404.7087672537     -1485.1747156238         9.6265650261        18.4353313690       -36.5053965903      2079.5285840192     -3106.0838813325      -450.1759181153     -1878.1241070213     -2913.3610637850 
    2000        19.4566529519     11142.2301506208         0.7974715352     -1454.6630246280     -1512.7176078729         8.8878359078        17.4906605121       -36.9072813527      2072.8571388603     -3106.3206564681      -468.7253053324     -1895.9015526565     -2715.3474748643 
    3000        17.3837991379     11142.2301506208         0.7974715352     -1475.7530773416     -1527.6226983222         8.4156938619        16.8936817448       -36.8044875181      2045.0855758720     -3106.3855576424      -454.8276046406     -1830.5858480413     -2183.6131858741 
    4000        15.9394206493     11142.2301506208         0.7974715352     -1490.5859880904     -1538.1458857382         8.4173202360        16.3072969356       -37.8057799945      2052.2666256883     -3106.6249676723      -470.7063809313     -1973.0817784051     -2969.2414479704 
    5000        14.6190924165     11142.2301506208         0.7974715352     -1501.2706753017     -1544.8909896363         8.4103239802        16.6927024823       -38.2094873697      2043.4519833979     -3106.2785853294      -468.9579267977     -1898.2457989424     -2442.9539378125 
    6000        12.6813028870     11142.2301506208         0.7974715352     -1510.8234988854     -1548.6618545332         8.2830978983        16.7040205464       -38.1771915852      2044.9172620947     -3106.3590107001      -474.0300327872     -1960.6840058407     -2768.4064604696 
    7000        12.8677715683     11142.2301506208         0.7974715352     -1517.2529455918     -1555.6476847866         8.2911082239        16.9502850010       -38.2534385527      2048.0595779569     -3106.4144619823      -484.2807554334     -1941.0231980550     -2607.8490699574 
    8000        12.5849209863     11142.2301506208         0.7974715352     -1521.5160287986     -1559.0668010119         8.0631776486        16.8380568482       -37.2013262938      2043.6473151224     -3106.5420099754      -483.8720143619     -1867.3029867233     -2127.9459598349 
    9000        11.4860253148     11142.2301506208         0.7974715352     -1525.2726189498     -1559.5445163023         8.2437704614        16.8279523722       -36.9667269277      2037.8729186631     -3106.6291070501      -478.8933238212     -1853.0141553081     -2016.8958434688 
   10000        11.6763594288     11142.2301506208         0.7974715352     -1528.9917816698     -1563.8315962122         8.0765501944        17.0884046719       -36.4243746255      2029.6880166610     -3106.2883499612      -475.9718431527     -1803.7715667361     -1690.9733582364 
Loop time of 11.4781 on 64 procs for 10000 steps with 1002 atoms

Performance: 75.274 ns/day, 0.319 hours/ns, 871.227 timesteps/s
99.1% CPU use with 64 MPI tasks x no OpenMP threads

MPI task timing breakdown:
Section |  min time  |  avg time  |  max time  |%varavg| %total
---------------------------------------------------------------
Pair    | 0.78658    | 1.8029     | 2.9932     |  42.0 | 15.71
Bond    | 0.02293    | 0.044637   | 0.072073   |   4.9 |  0.39
Kspace  | 1.0648     | 2.2614     | 3.2846     |  37.8 | 19.70
Neigh   | 3.9513     | 4.1038     | 4.2145     |   4.0 | 35.75
Comm    | 3.0454     | 3.1647     | 3.3342     |   4.8 | 27.57
Output  | 0.0014608  | 0.0018587  | 0.0018835  |   0.1 |  0.02
Modify  | 0.0083494  | 0.0093948  | 0.011258   |   0.6 |  0.08
Other   |            | 0.08933    |            |       |  0.78

Nlocal:    15.6562 ave 22 max 4 min
Histogram: 3 4 1 4 2 5 12 14 10 9
Nghost:    4769.66 ave 5164 max 4474 min
Histogram: 2 11 11 12 8 3 5 4 6 2
Neighs:    12064.5 ave 22337 max 3236 min
Histogram: 5 6 7 6 10 11 9 6 2 2

Total # of neighbors = 772125
Ave neighs/atom = 770.584
Ave special neighs/atom = 5
Neighbor list builds = 10000
Dangerous builds not checked
unfix relax

#===========================================================
# RUN RAMPED ANNEAL
#===========================================================

# REINITIALIZE THE VELOCITIES AND CREATE THE ANNEALING FIX
velocity        all create ${ANNEAL_TEMP} ${vseed} mom yes rot yes     # DRAW VELOCITIES
velocity        all create 100.0 ${vseed} mom yes rot yes     
velocity        all create 100.0 39635 mom yes rot yes     

fix mom all momentum 1000 linear 1 1 1 angular # Zero out system linear and angular momentum every ps
fix anneal all npt temp ${ANNEAL_TEMP} ${FINAL_TEMP} 100.0 iso ${pressure} ${pressure} 1000.0 # NPT, nose-hoover 100 fs T relaxation
fix anneal all npt temp 100.0 ${FINAL_TEMP} 100.0 iso ${pressure} ${pressure} 1000.0 
fix anneal all npt temp 100.0 298.0 100.0 iso ${pressure} ${pressure} 1000.0 
fix anneal all npt temp 100.0 298.0 100.0 iso 1.0 ${pressure} 1000.0 
fix anneal all npt temp 100.0 298.0 100.0 iso 1.0 1.0 1000.0 

# CREATE COORDINATE DUMPS FOR ANNEAL
dump anneal all custom ${coords_freq} anneal.lammpstrj id type x y z mol
dump anneal all custom 1000 anneal.lammpstrj id type x y z mol
dump_modify anneal sort id format float %20.10g

# RUN RAMPED ANNEAL
run ${nSteps_ramp}
run 50000
PPPM initialization ...
WARNING: Using 12-bit tables for long-range coulomb (../kspace.cpp:321)
  G vector (1/distance) = 0.186569
  grid = 8 8 8
  stencil order = 5
  estimated absolute RMS force accuracy = 0.00727475
  estimated relative force accuracy = 2.19077e-05
  using double precision FFTs
  3d grid and FFT values/proc = 343 8
Per MPI rank memory allocation (min/avg/max) = 9.834 | 10.35 | 10.54 Mbytes
Step Temp Volume Density TotEng PotEng E_bond E_angle E_dihed E_coul E_long E_vdwl Enthalpy Press 
   10000       100.0000000000     11142.2301506208         0.7974715352     -1265.4525102072     -1563.8315962122         8.0765501944        17.0884046719       -36.4243746255      2029.6880166610     -3106.2883499612      -475.9718431527     -1364.5394476318      -609.7732818803 
   11000        95.0443618523     10220.5236506340         0.8693890536     -1005.8097262740     -1289.4022244682       112.0998081364        98.8085540091       -17.8432533180      2098.3513720012     -3105.8503400859      -474.9683652110     -1539.7753849534     -3582.3192755696 
   12000       110.0222360315      9941.3563304677         0.8938027255      -964.5325494345     -1292.8158917076        88.4061766469       110.6257318371       -16.9557580312      2127.8770713051     -3105.2391352436      -497.5299782219      -760.6219951653      1406.4301734319 
   13000       109.3473091286      9834.7981314394         0.9034869109      -952.4809438562     -1278.7504454052        91.4941587741       115.3216333651       -12.5604734821      2137.3733673303     -3105.4911996332      -504.8879317594      -957.0666384151       -31.9715568513 
   14000       113.4054653995      9620.2983292823         0.9236315839      -955.8535590110     -1294.2317501499        92.0899010593       112.3132882941       -14.2321902860      2147.1974402955     -3106.3449233149      -525.2552661978      -964.0966812200       -58.7526296145 
   15000       117.5644953501      9568.6040901024         0.9286214896      -914.4340877539     -1265.2219544459       102.2689807160       115.9213898934        -4.3099528458      2137.0454760055     -3105.6882842391      -510.4595639758     -1159.3525580910     -1755.0805903456 
   16000       125.5718716255      9630.0906345506         0.9226923942      -889.0256061115     -1263.7058089470        94.0527055998       129.7926727465       -11.6276508165      2146.9061374497     -3105.3735496627      -517.4561242639      -881.3847625702        54.4045275140 
   17000       127.7744914169      9509.5276438798         0.9343904047      -888.7116857772     -1269.9640454145       101.6228314891       130.3938836989       -11.1077012028      2123.9787145304     -3105.6375536228      -509.2142203073      -876.4437332099        88.4580280259 
   18000       129.6589085060      9640.0052838734         0.9217434142      -860.7873587215     -1247.6624248457       102.0656918847       132.1608949961        -7.5752215898      2144.9500831722     -3105.2176657832      -514.0462075258      -762.1653948362       701.4883860193 
   19000       134.8626503562      9602.7539927927         0.9253190689      -840.4403075829     -1242.8422510780       101.6281680716       130.7833319743        -5.7260621547      2148.2784085507     -3105.7338597574      -512.0722377624      -978.9314124477      -988.8950148372 
   20000       132.4364602494      9620.0798817193         0.9236525572      -842.0906572035     -1237.2533568330       103.1477702832       135.0697795978        -5.8785053269      2154.3804645555     -3104.4433953874      -519.5294705551      -751.2361490348       647.5777433582 
   21000       142.9189839173      9705.3977119736         0.9155329485      -782.8961279217     -1209.3364858617       107.2781605068       143.1145231569       -12.5494208297      2168.2179621438     -3105.8260353910      -509.5716754485      -528.3140667912      1798.6164953977 
   22000       147.0382214897      9654.2127229622         0.9203869480      -761.6231314980     -1200.3544328570       112.3795288888       157.8452447303        -7.6716036705      2143.8413887809     -3105.9722614290      -500.7767301576      -386.2984112677      2665.7192994414 
   23000       150.8746739234      9782.9268467048         0.9082774023      -735.3335070560     -1185.5119801216       114.9554300375       161.4148442153        -1.9397741514      2149.4513158570     -3105.2957213450      -504.0980747350      -956.1013062153     -1547.3588128168 
   24000       156.5047873268      9840.7853929686         0.9029372178      -692.7617269158     -1159.7392808954       123.3722199995       172.6830530786        -4.3673171776      2144.7490032011     -3105.1599692180      -491.0162707790      -395.6317747765      2070.3357561050 
   25000       161.5568436545      9942.3785403004         0.8937108306      -643.8546433903     -1125.9064768653       130.7206566786       179.5048654527        -1.5149098402      2148.9474758410     -3104.7022882927      -478.8622767046      -882.5374896355     -1646.0954879538 
   26000       167.0338900496     10020.7054546438         0.8867251337      -628.1608594134     -1126.5550538619       124.6186525198       174.2870116149         1.8035101805      2145.6877600529     -3105.3976562399      -467.5543319900      -824.5276682832     -1343.6739462858 
   27000       168.5464874427      9952.8181783964         0.8927734059      -653.7233612671     -1156.6308299922       118.2054355992       173.6593668546       -12.0129922437      2163.6517127768     -3104.9521705807      -495.1821823984      -718.3470647777      -445.2150980484 
   28000       168.7545630133      9857.2520093303         0.9014288541      -614.6790330990     -1118.2073558096       137.9168967011       192.8427251016         3.6209336941      2151.9576330274     -3104.7151985586      -499.8303457753      -822.1406461616     -1443.1318147880 
   29000       177.8286172267     10004.0087170325         0.8882050821      -559.1627482472     -1089.7661509834       154.3042126485       186.5476034503         0.6469333216      2148.4591482375     -3104.8521709167      -474.8718777246      -375.1615078928      1261.1617768436 
   30000       181.7247779911     10110.5959383010         0.8788415082      -568.1837622652     -1110.4124938798       138.6325323253       175.7826325476        -1.2546034201      2154.6088428950     -3105.6167091560      -472.5651890717      -551.7007524295       111.7850882149 
   31000       178.4705793592     10075.6130613312         0.8818928763      -545.2177057526     -1077.7365892323       152.7909407673       181.5639336773         2.5595740700      2157.7028193154     -3104.8098909614      -467.5439661009      -655.0616677629      -747.5303315556 
   32000       192.9286495604     10118.3386162169         0.8781690078      -482.2344122305     -1057.8931534306       149.1894342883       196.8864879449         5.7745463303      2189.7909465329     -3104.6621337011      -494.8724348260      -503.4355875724      -143.6728937892 
   33000       191.9583746226     10156.3218049168         0.8748847815      -488.0264757061     -1060.7901194151       145.2106723656       190.6496512155        -0.5143071479      2184.4433839522     -3105.5117934464      -475.0677263542      -573.9913689227      -580.3751187412 
   34000       190.6183789733     10211.9357459594         0.8701201814      -464.3748247852     -1033.1402017231       154.0882191160       203.3909298111        -9.5745521543      2199.5387636557     -3105.0182123230      -475.5653498286       -12.9851546849      3030.8724022667 
   35000       204.5786789438     10131.3031447906         0.8770452583      -403.2888968199     -1013.7088892136       160.8291082389       214.2359731822         1.5629567812      2183.9748684490     -3105.7071511248      -468.6046447401      -251.7105927128      1025.8783013870 
   36000       203.9180983291     10533.7665236826         0.8435360100      -366.8438241898      -975.2927821830       163.8393364485       216.8380858255         4.1057894270      2227.6306210351     -3104.9687413951      -482.7378735241      -449.5116432875      -538.1172360614 
   37000       196.2246819522     10135.8788803577         0.8766493255      -424.3337094115     -1009.8271219368       149.1147839013       213.2404163080         2.3287231118      2186.7882749713     -3105.2157185123      -456.0836017168       -45.4056655006      2563.4180988856 
   38000       205.9865594274     10272.1243992161         0.8650217850      -356.7048158426      -971.3256291551       167.8325176182       210.4285089159         1.1628726768      2229.1032207965     -3104.0588939854      -475.7938551771      -498.7085923495      -947.9026441534 
   39000       217.9971072151     10198.0689911188         0.8713033214      -290.7239829549      -941.1817589807       184.7893985739       225.6136000038         1.6352417061      2208.7632794165     -3103.8039201571      -458.1793585238       -35.9709025495      1712.8747564836 
   40000       208.5386027535     10434.5407452469         0.8515574955      -289.9908778502      -912.2264547138       182.2812662806       231.2943087767        -0.1066442468      2239.5898109178     -3105.1750629984      -460.1101334437      -242.5582164435       311.6938724275 
   41000       223.1665676151     10495.8585532095         0.8465826153      -235.6560220220      -901.5383867408       184.1177886319       223.6703730958         5.2935044814      2254.9693127376     -3104.3939897430      -465.1953759446      -498.9335164329     -1719.9660614141 
   42000       235.9380887487     10348.7520959306         0.8586167010      -173.2838760180      -877.2737887640       199.7251350051       236.1608129528         0.0531256002      2251.6997557366     -3104.5274778368      -460.3851402219        37.9355644609      1399.4906938124 
   43000       228.9872696793     10583.6189540805         0.8395626696      -186.0380927884      -869.2882151254       191.2875905025       225.0627817381        11.8176700380      2246.7044378713     -3104.1007383019      -440.0599569734      -166.3478868722       127.5675377733 
   44000       230.1702485027     10535.0196964042         0.8434356688      -143.2482356284      -830.0281193663       209.8003838465       256.9167154141        13.8331055676      2248.2110957534     -3103.3712390276      -455.4181809203      -218.8053613925      -491.7724413337 
   45000       238.3646588663     10482.7647864829         0.8476400611      -168.6797950353      -879.9100855194       190.7812149689       235.7482106229         6.3540984348      2252.9359626447     -3104.0408817751      -461.6886904155        52.3226552733      1445.5907422739 
   46000       243.5635451804     10923.9937468776         0.8134031920       -81.3914749991      -808.1341549496       205.7736144268       248.1217044568         5.9749142891      2293.4610077836     -3104.6774914614      -456.7879044444      -188.4538675151      -672.0159980894 
   47000       246.3327877535     10673.4272218139         0.8324984280       -95.5272615584      -830.5327821878       215.7505988758       231.9925475215         6.2383205092      2263.4253726731     -3104.5365434551      -443.4030783123        -4.3616280145       585.6678332708 
   48000       258.8836618863     10907.3306759399         0.8146458238       -24.1489321198      -796.6036362723       214.9015989303       253.2047156998         7.4061001080      2262.0559451692     -3104.7855274224      -429.3864687572       184.2731314462      1310.2353797040 
   49000       256.0173608981     10831.0115965376         0.8203861019        16.1482070483      -747.7540544135       228.6084147512       267.6318373488         3.3610052909      2317.2764026698     -3103.8308245972      -460.8008898769       402.3088976269      2444.6863759938 
   50000       258.6890762052     10972.8287917394         0.8097831063        35.1854641884      -736.6886369873       205.0904109630       285.1573147510        10.2486047587      2318.6457024836     -3102.7033109991      -453.1273589445       373.3371257476      2113.0853221900 
   51000       258.6654361445     10721.0620315188         0.8287995497        -2.4269583671      -774.2305225459       213.5681399391       275.2057624250        12.2135547465      2278.5820217948     -3104.3243775686      -449.4756238826        -4.4299091121       -12.8102195013 
   52000       263.5117990468     10639.8739385295         0.8351237463        21.2986563800      -764.9654411313       222.1139062066       267.1365017241        14.6282340328      2283.1484626986     -3105.3158887388      -446.6766570547       311.0528079534      1867.3137508815 
   53000       270.6107621452     10800.0080191359         0.8227411839        91.4024973679      -716.0434213521       221.6518589812       305.5185693856        10.8868448530      2268.6207891966     -3103.9321865449      -418.7892972236       306.1545103532      1363.4439087797 
   54000       275.1919741367     10640.3652298790         0.8350851866        84.4849615803      -736.6303356078       245.4010829810       287.4950659125        11.1374648359      2234.0962183920     -3104.8549163535      -409.9052513756        20.3813289038      -413.0952644395 
   55000       271.2184456622     11039.4766691860         0.8048942581       104.2636562170      -704.9954630269       258.9399557735       282.7261071212        11.8609148085      2265.8127829906     -3105.1279625196      -419.2072612011        36.3093711401      -422.0777632677 
   56000       287.9506707051     10989.6326473494         0.8085448958       196.4377396340      -662.7468397611       236.9239351752       329.2209070854        11.4033345456      2308.9238045304     -3104.0509639570      -445.1678571407       567.5229404418      2315.3389076643 
   57000       279.2421009535     11081.1425945176         0.8018677955       135.6536811356      -697.5463474306       248.2156284908       299.2270570321         1.3436850820      2295.1440285825     -3104.6122612879      -436.8644853301        -5.1080301080      -871.0119331412 
   58000       285.4690729795     11684.8407187727         0.7604392390       209.9707807941      -641.8092299891       260.6727033328       300.6532968900         5.8532033052      2289.4118899426     -3103.1767394249      -395.2235840348      -411.5888556825     -3647.4060816853 
   59000       291.9078806714     11480.0707731084         0.7740031886       248.4405913426      -622.5514749812       276.2853055488       304.9908057527         1.9726370385      2314.3778229813     -3103.7504665441      -416.4275797584      -218.5689591988     -2789.3647437698 
   60000       293.9846736835     11138.7303466082         0.7977221018       267.2071705377      -609.9816117940       271.1884957639       308.7850654380        15.9221836957      2326.5719515085     -3104.2611122549      -428.1881959452       692.3952466214      2617.3963770332 
Loop time of 61.5163 on 64 procs for 50000 steps with 1002 atoms

Performance: 70.225 ns/day, 0.342 hours/ns, 812.792 timesteps/s
99.4% CPU use with 64 MPI tasks x no OpenMP threads

MPI task timing breakdown:
Section |  min time  |  avg time  |  max time  |%varavg| %total
---------------------------------------------------------------
Pair    | 6.9111     | 10.595     | 14.936     |  68.0 | 17.22
Bond    | 0.22421    | 0.25834    | 0.29971    |   3.8 |  0.42
Kspace  | 7.0429     | 11.445     | 15.164     |  65.5 | 18.61
Neigh   | 20.549     | 20.767     | 21.004     |   2.3 | 33.76
Comm    | 16.471     | 16.706     | 16.909     |   2.4 | 27.16
Output  | 0.030667   | 0.030697   | 0.031097   |   0.0 |  0.05
Modify  | 1.0203     | 1.0713     | 1.1059     |   1.7 |  1.74
Other   |            | 0.6419     |            |       |  1.04

Nlocal:    15.6562 ave 22 max 5 min
Histogram: 1 1 1 3 12 11 9 11 11 4
Nghost:    4748.72 ave 4881 max 4604 min
Histogram: 4 2 3 10 12 9 8 8 6 2
Neighs:    12075.5 ave 20320 max 2870 min
Histogram: 1 0 7 8 11 16 10 7 2 2

Total # of neighbors = 772833
Ave neighs/atom = 771.29
Ave special neighs/atom = 5
Neighbor list builds = 50000
Dangerous builds not checked
unfix anneal

# RUN EQUILIBRATION PHASE AT FINAL TEMP
fix anneal all npt temp ${FINAL_TEMP} ${FINAL_TEMP} 100.0 iso ${pressure} ${pressure} 1000.0 # NPT, nose-hoover 100 fs T relaxation
fix anneal all npt temp 298.0 ${FINAL_TEMP} 100.0 iso ${pressure} ${pressure} 1000.0 
fix anneal all npt temp 298.0 298.0 100.0 iso ${pressure} ${pressure} 1000.0 
fix anneal all npt temp 298.0 298.0 100.0 iso 1.0 ${pressure} 1000.0 
fix anneal all npt temp 298.0 298.0 100.0 iso 1.0 1.0 1000.0 
run ${nSteps_ramp}
run 50000
PPPM initialization ...
WARNING: Using 12-bit tables for long-range coulomb (../kspace.cpp:321)
  G vector (1/distance) = 0.186575
  grid = 8 8 8
  stencil order = 5
  estimated absolute RMS force accuracy = 0.00727248
  estimated relative force accuracy = 2.19009e-05
  using double precision FFTs
  3d grid and FFT values/proc = 343 8
Per MPI rank memory allocation (min/avg/max) = 10.43 | 10.54 | 10.55 Mbytes
Step Temp Volume Density TotEng PotEng E_bond E_angle E_dihed E_coul E_long E_vdwl Enthalpy Press 
   60000       293.9846736835     11138.7303466082         0.7977221018       267.2071541058      -609.9816282258       271.1884957639       308.7850654380        15.9221836957      2326.6783192921     -3104.3674964703      -428.1881959452       692.3951720334      2617.3960190326 
   61000       293.1873201132     11228.0051574470         0.7913793465       312.7104582498      -562.0991877864       290.4509863500       316.6890759656        12.4227755207      2332.0523659570     -3103.7497006188      -409.9646909609         4.7918112142     -1880.4314105762 
   62000       293.8223972300     11337.7386439216         0.7837198989       280.2635835084      -596.4409998246       256.9124890487       323.7169656716        12.7461922208      2327.7084796754     -3101.8450471205      -415.6800793205       699.3104670072      2534.3131919527 
   63000       287.9540587445     11290.8669669306         0.7869733484       282.0842540477      -577.1104345483       275.3899867937       333.1262397113         8.2248744460      2348.9168719907     -3103.8397599312      -438.9286475589       -56.3151269058     -2055.0688673355 
   64000       304.8576938459     11146.2761521087         0.7971820599       299.9515903120      -609.6800102012       271.8697660568       320.6089657246        10.2112559667      2316.6754909796     -3104.0669462456      -424.9785426834       424.7467953057       767.7011846148 
   65000       296.8855648763     11177.9600786831         0.7949224475       274.7398425508      -611.1045924079       258.5657146832       340.1683667247         8.7353780694      2312.3723577181     -3103.0056125844      -427.9407970189       414.9822791309       860.2823345532 
   66000       291.0533887737     11540.4452852280         0.7699539458       279.1665504250      -589.2758907846       289.0710318899       316.1644885895        11.2973048717      2333.4389311573     -3105.0385588113      -434.2090884816       348.0737621828       409.4173297066 
   67000       305.7166595671     10877.5456268129         0.8168764985       341.3416190207      -570.8529555607       290.1201242149       334.8320607652         9.3674804439      2342.3876703667     -3103.2409727226      -444.3193186288         6.6019739198     -2110.0869341020 
   68000       302.4127985351     11262.7609978203         0.7889372229       307.1783285780      -595.1582156532       288.5233593656       321.6799489844         5.8297976187      2334.2269101430     -3105.0475861792      -440.3706455856      -108.3446208304     -2529.7305023676 
   69000       301.7830686472     11560.1200451133         0.7686435218       309.7084740769      -590.7490878703       262.6662589656       327.8377365126         7.3386978356      2325.2442485194     -3103.8329377652      -410.0030919385       450.7909835237       836.8255709493 
   70000       291.1377726820     11374.9743712161         0.7811544091       280.0012402547      -588.6929848892       266.7586753700       310.7973750093        14.9661149418      2339.4759278141     -3102.5555666029      -418.1355114216      1001.0017299269      4346.1953563735 
   71000       293.5264142254     11530.4003812726         0.7706247042       286.1073655717      -589.7140663773       281.2317116175       310.2190283535         4.7336207733      2335.6949950426     -3104.4466447731      -417.1467773910       100.8372889506     -1101.7549331130 
   72000       286.4103824027     11181.6833782297         0.7946577526       235.7115319392      -618.8771492975       270.7138253700       324.2780993623         7.4198357129      2322.8748136062     -3104.5277366709      -439.6359866780       -79.9985247715     -1935.9999255892 
   73000       299.3591116377     11212.6668292782         0.7924619111       285.8303344222      -607.3946467551       275.2092423482       306.4947763631        19.6871872494      2315.7645840672     -3104.0355382476      -420.5148985354       524.6983430909      1460.7408744055 
   74000       297.7322054038     11255.2242535686         0.7894655125       310.4745509303      -577.8960822961       283.6852738632       330.4804967159         7.9852972245      2317.4177510854     -3103.2417651521      -414.2231360331       396.7638777476       525.6867600308 
   75000       305.1235873822     11325.6663069494         0.7845552873       323.5417800175      -586.8831911992       275.9902674454       326.3686059110         9.2257648606      2329.0660312400     -3103.5603815050      -423.9734791512       578.7830416016      1545.2944025627 
   76000       296.2706993035     11250.3409169145         0.7898081889       280.8760016818      -603.1338030006       265.2664850388       325.5259014841        10.0074230480      2324.5294780529     -3102.9752083526      -425.4878822718       340.3654689518       362.5755441566 
   77000       295.2612894960     11222.0043217690         0.7918025273       257.4305696787      -623.5673672460       248.3779077759       314.3676646967         5.3608420391      2354.9193237542     -3102.8326060765      -443.7604994355       278.4414408318       128.3801085286 
   78000       304.0245509753     11121.3437193852         0.7989692260       343.5359055572      -563.6097708737       284.5679488661       313.2760552914        10.4303711311      2366.4497112063     -3102.3481100295      -435.9857473391       631.0291546667      1772.5336894565 
   79000       295.2086874406     11337.2219218756         0.7837556189       329.1951627267      -551.6458206658       279.8177715175       325.2673563687        14.2560627025      2367.1274202790     -3103.1472867538      -434.9671447796        81.4229246809     -1498.5460954080 
   80000       291.8947599719     11374.4989014984         0.7811870624       289.1188054042      -581.8341114964       262.8479160339       321.1791993258        10.1408361214      2340.8445962088     -3103.8210718659      -413.0255873203        17.5808017177     -1636.9011669248 
   81000       302.7416356544     11191.8760593288         0.7939340408       326.2435385760      -577.0741868463       281.7398895516       328.4413198551        16.4856441106      2313.6214207279     -3102.5943019208      -414.7681591707       203.4315299935      -752.4229831375 
   82000       306.0753635791     11452.5937110824         0.7758601770       324.6561650330      -588.6087073008       268.4599934970       323.0087051271         4.5729294098      2330.7679587734     -3103.3976626384      -412.0206314696       481.6324936318       939.8410802024 
   83000       305.7805728833     11350.4754331643         0.7828404577       306.9960159610      -605.3892625892       252.5477439458       327.7446939712        12.7896318465      2318.1599499137     -3104.4888515518      -412.1424307144       286.9453740725      -121.1262684215 
   84000       289.2723645698     10988.8366061342         0.8086034675       226.6238593726      -636.5043780959       262.0320160140       298.5040040685         7.9544773808      2315.0130571023     -3103.2538064083      -416.7541262532       306.7859189641       500.1972061588 
   85000       317.0167531289     11507.3312682494         0.7721696001       347.0371404256      -598.8745500431       261.2505373281       330.2456032972         9.0742638961      2330.7421086014     -3103.7895736143      -426.3974895516       154.8933759054     -1144.9217093139 
   86000       303.1509751801     11071.7991667690         0.8025444871       276.3270506951      -628.2120582626       234.5649523824       328.5189911767        17.6638666842      2342.8087610599     -3103.0989342207      -448.6696953452       540.3406715458      1635.0545423976 
   87000       297.2831225109     11945.3895833893         0.7438527912       324.7074005715      -562.3232632236       276.9785142939       317.5140952513         9.3270599925      2332.1226597919     -3104.2831612165      -393.9824313366       189.1729646780      -777.9889791172 
   88000       304.4885014110     11138.2460122110         0.7977567899       302.2879084613      -606.2420990391       248.2932132767       322.0570999968        16.3150031178      2318.7916230534     -3103.6166679609      -408.0823705228       364.6804229658       384.0960078230 
   89000       284.2914707246     11276.4597502930         0.7879788143       210.8395612005      -637.4267307376       248.9087575677       322.8130659208         7.0102166512      2320.6069332498     -3104.8224446466      -431.9432594804       134.1217620553      -466.4955142094 
   90000       288.7522647417     10969.2127146105         0.8100500569       248.9573604066      -612.6190079483       263.0173627655       306.3609578603        14.5616304243      2331.6337573875     -3103.3820022025      -424.8107141834        25.0053041053     -1399.9215746924 
   91000       296.8504154275     11425.2956580070         0.7777139121       345.9731179721      -539.7664383825       284.0420788121       322.0927729823        12.4904943974      2390.8788500430     -3104.6084543644      -444.6621802529       277.9887765954      -408.0050681010 
   92000       294.6969044973     11409.1192831727         0.7788165908       273.8332960463      -605.4806340777       234.9335543401       329.2605182784        14.3440896942      2329.8735436543     -3103.3521092762      -410.5402307684       665.6932550131      2355.0648933914 
   93000       293.1779434405     10800.8174281032         0.8226795280       239.9724947774      -634.8091732287       244.7245615714       293.9278363665        11.4658751701      2376.2029097759     -3103.7584729068      -457.3718832058       401.2474354583      1023.8453834922 
   94000       294.7622096428     11331.0684995927         0.7841812433       280.2397532497      -599.2690337707       268.2866960069       321.8078588184        14.8283498502      2335.5075977987     -3104.0609175847      -435.6386186603       843.9457184120      3411.1897354266 
   95000       294.1758708093     11441.6850604037         0.7765998921       292.3720444972      -585.3872300710       255.6819543997       328.0468310733        22.2986665411      2333.8290398419     -3103.5360566261      -421.7076653009       160.2027753213      -792.0719064765 
   96000       299.2214959493     11375.9731527849         0.7810858257       310.5646598732      -582.2497048709       280.0825851428       316.0603047652        12.0719589298      2321.7127373068     -3103.6804312478      -408.4968597677      -268.4671996426     -3490.1011375699 
   97000       304.0802545279     11518.8876940020         0.7713949141       311.8643758232      -595.4475083589       276.5731738304       314.9411409025        15.1314767752      2314.7767142985     -3103.4967905918      -413.3732235736       629.1928987073      1888.9596310406 
   98000       299.6147623902     11102.1386342791         0.8003513266       300.2570287642      -593.7307607915       272.7273524712       321.3089637334         9.9256872659      2339.9660748569     -3104.6314886884      -433.0273504306       340.2006889521       246.6978263017 
   99000       290.8672718073     11182.9708261838         0.7945662670       280.4074570851      -587.4796500212       274.4200464717       321.2962975236        10.6622969817      2345.6609397515     -3105.1201985621      -434.3990321875       354.6203064107       455.0362806074 
  100000       290.5582554456     11117.1967367400         0.7992672608       219.9931378842      -646.9719290265       266.9733877412       287.2875981075         6.3443257249      2338.5110145426     -3102.7654476825      -443.3228074603       656.6293605722      2693.0758203064 
  101000       290.7917607124     11349.0278184718         0.7829403122       328.6462807342      -539.0155170574       289.0238978455       329.4927026778        22.5842792210      2348.2223624611     -3104.0186650399      -424.3200942229       -57.4256952425     -2332.5648586002 
  102000       284.8770136585     10830.3957569082         0.8204327508       209.0200188547      -640.9934107380       254.9413155780       304.3156054942         5.8831178603      2341.1506844854     -3104.6731432771      -442.6109908787       345.6000063287       864.7027746740 
  103000       291.2070308730     11247.2079684253         0.7900281926       318.3789466649      -550.5219304363       269.4720989056       349.6400666073        10.5872664071      2352.6808486707     -3104.9523074415      -427.9499035856       423.5224607081       641.0056723155 
  104000       294.8980835610     11260.3569917178         0.7891056554       258.6783079465      -621.2358984292       266.8704603220       308.5227878758        13.2026957457      2313.9394922427     -3103.3683155288      -420.4030190866       136.1281009123      -746.2528461967 
  105000       296.6347418603     11051.7078260601         0.8040034648       252.5300958044      -632.5659357316       259.3919180569       299.6385548207        12.0617888983      2332.3612851873     -3103.8958262313      -432.1236564634       244.7143537576       -48.4914234645 
  106000       295.4895476469     11607.5954336831         0.7654997484       302.2990395844      -579.3799719247       271.2805538364       312.6669238238        12.7248130440      2329.7097526048     -3104.6559731590      -401.1060420747       576.8987218728      1622.1158879624 
  107000       292.2319149280     11267.8840201052         0.7885785271       265.4587637584      -606.5001530187       252.6500530747       325.8916198045        14.3262060539      2319.4566330620     -3105.0556497177      -413.7690152961       178.7378627459      -527.7223939465 
  108000       293.0610893461     11528.6437317821         0.7707421263       291.0885081899      -583.3444916371       250.7819294545       333.3263790767        20.1255261120      2352.1382900181     -3103.9519436961      -435.7646726024       503.3958606108      1262.7312446315 
  109000       301.5308817154     11194.6594013339         0.7937366440       304.0610092896      -595.6440795957       265.9468070112       341.6773103398         7.4019146934      2338.9862567545     -3104.8606565417      -444.7957118529       -56.2634204361     -2207.0233801957 
  110000       291.2713785570     11399.0072387837         0.7795074779       260.3001396318      -608.7927375007       251.5520604580       324.9546749209         9.2521458692      2320.1618698489     -3103.6185250254      -411.0949635724      -351.0156327668     -3677.2459829011 
Loop time of 57.6212 on 64 procs for 50000 steps with 1002 atoms

Performance: 74.972 ns/day, 0.320 hours/ns, 867.736 timesteps/s
99.4% CPU use with 64 MPI tasks x no OpenMP threads

MPI task timing breakdown:
Section |  min time  |  avg time  |  max time  |%varavg| %total
---------------------------------------------------------------
Pair    | 6.4926     | 9.7118     | 13.244     |  63.1 | 16.85
Bond    | 0.23507    | 0.25846    | 0.29089    |   2.3 |  0.45
Kspace  | 7.6463     | 11.194     | 14.415     |  58.8 | 19.43
Neigh   | 19.578     | 19.762     | 19.924     |   1.9 | 34.30
Comm    | 14.965     | 15.123     | 15.292     |   2.1 | 26.25
Output  | 0.028521   | 0.028559   | 0.028956   |   0.0 |  0.05
Modify  | 1.0145     | 1.0624     | 1.0994     |   1.9 |  1.84
Other   |            | 0.4805     |            |       |  0.83

Nlocal:    15.6562 ave 22 max 10 min
Histogram: 7 7 6 5 8 10 4 8 7 2
Nghost:    4684.95 ave 4821 max 4534 min
Histogram: 2 3 6 8 8 12 9 11 3 2
Neighs:    11801.9 ave 20480 max 5974 min
Histogram: 4 6 18 8 6 9 5 3 2 3

Total # of neighbors = 755320
Ave neighs/atom = 753.812
Ave special neighs/atom = 5
Neighbor list builds = 50000
Dangerous builds not checked
unfix anneal
undump anneal

# RETURN TO LESS FREQUENT NEIGHBOR BUILDS
neigh_modify every 1 delay 10 check yes one 10000 # More relaxed rebuild criteria can be used

#===========================================================
# RUN EQUILIBRIUM SIM
#===========================================================

# UPDATE RUN PARAMETERS AND CREATE FIX
fix equil all npt temp ${FINAL_TEMP} ${FINAL_TEMP} 100.0 iso ${pressure} ${pressure} 1000.0 # NPT, nose-hoover 100 fs T relaxation
fix equil all npt temp 298.0 ${FINAL_TEMP} 100.0 iso ${pressure} ${pressure} 1000.0 
fix equil all npt temp 298.0 298.0 100.0 iso ${pressure} ${pressure} 1000.0 
fix equil all npt temp 298.0 298.0 100.0 iso 1.0 ${pressure} 1000.0 
fix equil all npt temp 298.0 298.0 100.0 iso 1.0 1.0 1000.0 

# CREATE COORDINATE DUMPS FOR EQUILIBRIUM
dump equil all custom ${coords_freq} equil.lammpstrj id type x y z mol
dump equil all custom 1000 equil.lammpstrj id type x y z mol
dump_modify equil sort id format float %20.10g

# RUN EQUIL
run		${nSteps_equil}
run		100000
PPPM initialization ...
WARNING: Using 12-bit tables for long-range coulomb (../kspace.cpp:321)
  G vector (1/distance) = 0.186103
  grid = 8 8 8
  stencil order = 5
  estimated absolute RMS force accuracy = 0.0074412
  estimated relative force accuracy = 2.2409e-05
  using double precision FFTs
  3d grid and FFT values/proc = 343 8
Per MPI rank memory allocation (min/avg/max) = 11.04 | 11.05 | 11.05 Mbytes
Step Temp Volume Density TotEng PotEng E_bond E_angle E_dihed E_coul E_long E_vdwl Enthalpy Press 
  110000       291.2713785570     11399.0072387837         0.7795074779       260.2949328360      -608.7979442965       251.5520604580       324.9546749209         9.2521458692      2312.3321381694     -3095.7940001417      -411.0949635724      -351.0471590802     -3677.4043026186 
  111000       305.5483336135     11105.5284636525         0.8001070289       308.0343541141      -603.6579710254       270.2190842409       306.5228532375         9.8839678173      2320.2268326168     -3096.3018126079      -414.2088963300       306.3681598062       -10.2875160911 
  112000       313.4058741765     11403.9795320099         0.7791676019       345.0203759438      -590.1172069101       254.9988636428       332.2301084917         9.7626696888      2323.1301306470     -3096.1448355248      -414.0941438556       490.0365740212       871.9351717164 
  113000       300.5978028048     11170.4453348966         0.7954572192       282.7513076606      -614.1696688996       260.8192441541       316.0355337925        22.1130382138      2314.0655189969     -3096.6861896283      -430.5168144286       461.8906906100      1099.6252328947 
  114000       305.4169130901     11134.2905384555         0.7980401942       335.6269566757      -575.6732371074       265.6616474462       331.8700970594        11.6270755418      2328.5374452602     -3095.5181340740      -417.8513683410       343.6454481770        49.3803580061 
  115000       298.7782950020     11188.3456417094         0.7941845621       314.8110474396      -576.6808983688       264.1687430795       326.5577362086         8.1895988206      2353.5803034891     -3095.9560226157      -433.2212573508       509.5710072298      1193.5975322838 
  116000       293.0525779312     11488.7054526446         0.7734214634       309.9101096991      -564.4974938459       283.2802568839       327.4838831874         5.2466177310      2338.3640211748     -3096.5806095586      -422.2916632645       418.4015046892       647.5127268492 
  117000       287.8629415321     11367.6226941426         0.7816595978       258.6574555851      -600.2653583056       254.4050155648       336.3309954310        12.0613117970      2295.7293324657     -3096.0455934895      -402.7464200745       326.1218131456       406.9385650265 
  118000       304.0684015882     11037.7082642912         0.8050232141       329.6820708280      -577.5944466610       279.1806602807       334.9913124293        11.0063535508      2347.7074930954     -3096.3694882803      -454.1107777369       286.2490659541      -269.8143701191 
  119000       298.1379836825     11316.2336898324         0.7852092513       353.8106109006      -535.7707798448       285.3458295372       326.1166037545        16.6823699881      2342.3038266822     -3096.0457997158      -410.1736100911       791.5390521641      2652.3264047495 
  120000       294.5370432974     11446.7428106885         0.7762567510       275.5450266235      -603.2919111135       272.7715061329       318.3467148684        14.1524896155      2314.6272213662     -3096.3546679628      -426.8351751337        59.1442585486     -1296.2864560761 
  121000       312.4723823068     11191.5212678514         0.7939592099       321.8792033697      -610.4730349754       264.2266747087       310.1448087395        20.5090137565      2301.7360027166     -3096.6376902027      -410.4518446941       497.0369693677      1073.1597699698 
  122000       277.2705114294     11257.9643297690         0.7892733645       233.3411247303      -593.9760930340       258.4214445360       330.7804755701        20.7870675391      2298.1711611075     -3096.4628720797      -405.6733697070       288.6952346634       337.1429745797 
  123000       301.0048612984     11275.6407570371         0.7880360482       325.8684808337      -572.2670731390       283.0424363168       329.1148209786         8.7517063286      2328.7632754525     -3096.4097845808      -425.5295276346      -149.9289688039     -2893.3767655140 
  124000       304.7945649958     11170.3548645475         0.7954636617       310.6667128665      -598.7765243608       281.2620164042       315.4892459552        16.0455631099      2310.8357036421     -3095.4089082492      -427.0001452230       246.4071096728      -394.4529240969 
  125000       301.5143625686     11166.5683653732         0.7957333975       314.4829237811      -585.1728754250       286.3079320082       309.4853760573         4.1049467401      2335.0596109121     -3097.0536684758      -423.0770726670       494.9974368308      1108.4510155059 
  126000       287.0615968075     11058.8767665017         0.8034822678       227.3711616665      -629.1606071589       261.4763730201       311.0877668265         9.5814291589      2323.8736253809     -3096.4467839464      -438.7330175988       201.8975270439      -157.9443181471 
  127000       292.3934669647     11431.6160967740         0.7772839210       304.2835925563      -568.1573617113       276.6098673795       332.7440383955        10.9796040908      2328.6128916015     -3093.9668870292      -423.1368761495       275.7000434452      -171.4480823214 
  128000       301.2842480066     10949.7623415552         0.8114889718       301.9768819340      -596.9923035450       256.9121117193       330.4751678888        10.7733535194      2326.6827230907     -3095.1020968661      -426.7335628972       488.5361945204      1168.2515079789 
  129000       300.1087357367     11402.9542557782         0.7792376593       322.3744485741      -573.0872541383       291.5294025799       314.1670359237        10.7342331624      2331.7754139881     -3096.0418262633      -425.2515135290        66.0724478068     -1541.1990226159 
  130000       300.4587669891     11457.2482248745         0.7755449833       333.6654386163      -562.8406841476       284.7672923505       326.6947433809         9.2663298433      2335.8172437393     -3096.2405552497      -423.1457382119       395.5741116861       370.5060328476 
  131000       294.2574498639     11223.5568920545         0.7916929962       282.4962197966      -595.5064696089       274.8071148366       306.3878599282         8.7781900516      2341.9937047628     -3096.4104035881      -431.0629356001       292.0892783845        58.6071624798 
  132000       291.3330729735     11058.3775333485         0.8035185412       253.3891096928      -615.8878506759       278.5770988665       322.9739859243         9.8267708837      2296.0119518148     -3097.5375492707      -425.7401088944        98.0089041592      -963.4482439836 
  133000       301.9464846441     11141.5400962750         0.7975209268       308.5779276535      -592.3672334519       260.8248800168       334.5654937568         8.9302293449      2342.5576829361     -3096.6665032395      -442.5790162669       141.8588388870     -1026.0398085168 
  134000       298.1052290141     11467.0662983398         0.7748809637       322.3999875410      -567.0836701244       263.8238720921       339.6248195328         8.6629363565      2326.5823596665     -3095.0442421041      -410.7334156683       523.3797138519      1201.7774138330 
  135000       305.5767106688     10866.2460890524         0.8177259479       261.1549609903      -650.6220353476       257.1439964673       291.6099940542         8.7378342722      2337.2143288431     -3095.6610909506      -449.6670980338       216.7845898797      -279.9868505717 
  136000       286.4476067780     11257.0918844169         0.7893345346       307.8707774266      -546.8289735607       276.6398428050       348.6184203838        12.8498266772      2323.8449177745     -3096.9555605862      -411.8264206150       178.4655418936      -788.2241687556 
  137000       298.2184819218     11088.6791885239         0.8013227935       254.9711441978      -634.8504364584       258.0867373546       313.6988928532         7.8237662060      2288.5975967327     -3096.6727625213      -406.3846670836       639.5899418773      2378.3446962175 
  138000       287.0685476332     11406.5605177675         0.7789912980       329.8363614408      -526.7161471948       300.6080867610       332.1914476068        19.7266895121      2327.3755381900     -3096.6593024548      -409.9586068099       -12.0061553336     -2054.9226489724 
  139000       300.3697212396     11067.4503216724         0.8028598390       312.0097021642      -584.2307267063       278.9235837919       327.7402253403        12.4989062241      2330.5165184759     -3095.9528604379      -437.9571001006       683.9312555558      2304.2408756478 
  140000       294.2474094012     11247.9325267871         0.7899773014       246.2193600754      -631.7533706892       242.9566833749       311.4101705272         1.9068405078      2344.6059743996     -3096.0200331263      -436.6130063724       116.6969174669      -789.5805362843 
  141000       300.3040756580     11603.9036160349         0.7657432945       315.7257933665      -580.3187628174       242.3504998519       351.0003602375         3.3575286601      2308.3735031472     -3096.3978065444      -389.0028481697       245.4347143850      -415.3557314750 
  142000       289.3658958608     11159.7589719191         0.7962189332       265.0300909218      -598.3772243579       245.5403098779       331.3103137825        11.4524404260      2332.0720459826     -3096.7737776707      -421.9785567561       498.3272956629      1433.4377286534 
  143000       292.7826099224     10929.1189914904         0.8130217441       224.6316854062      -648.9703900619       251.8728840321       300.9769258538         6.5775285075      2343.9333461643     -3096.9294824758      -455.4015921439       478.6504604784      1593.6933983882 
  144000       298.3948939896     11602.6651211608         0.7658250316       325.1559822397      -565.1919751321       275.8074909345       326.3487361813         8.3569423001      2333.9867713906     -3096.0898003205      -413.6021156180       296.5727910177      -168.9184422087 
  145000       294.9887282256     11269.8782336965         0.7884389875       276.2276745671      -603.9569965302       265.5032772665       319.2276564965        11.4853251363      2334.8259357708     -3096.8035645999      -438.1956266004        69.7615991348     -1256.1849604847 
  146000       287.6276673558     11198.0200446601         0.7934984353       275.1903112239      -583.0304937299       276.2632892754       342.4902289168         9.1071821666      2322.6731445644     -3095.9774678868      -437.5868707662       515.3191120239      1470.3716550822 
  147000       311.9322732603     11088.7701888981         0.8013162174       313.7928464762      -616.9478194326       251.6273301289       324.9296199610        13.9472035034      2321.9654212118     -3097.3593680484      -432.0580261893       711.7415003266      2460.7515514413 
  148000       282.6835081533     11282.8262958442         0.7875341825       215.9346470175      -627.5338208973       264.6757403458       312.1136900446        11.5369284828      2310.6089234947     -3096.5650938934      -429.9040093718       346.7523428735       795.0102060953 
  149000       303.4923992590     11419.6240278396         0.7781001688       316.9199689696      -588.6378780340       268.8418720243       334.0948601000        14.6748211585      2298.9229563775     -3096.9084637501      -408.2639239442       296.6055396244      -121.9767146832 
  150000       301.9591095809     11443.7305208695         0.7764610821       297.3299355696      -603.6528957067       270.0357325145       313.9359019540        11.4569975158      2304.8462957629     -3096.2140538045      -407.7137696494       327.8268096109       182.7308246776 
  151000       299.6139354909     11557.4786044679         0.7688191938       297.0179024067      -596.9674198547       247.1191334701       345.0773388878         7.9835079598      2306.4568078332     -3096.3602354280      -407.2439725776       242.9623891249      -320.7015123793 
  152000       301.9388612304     11359.2879724821         0.7822331299       307.8653741229      -593.0570403104       264.3047828025       344.5490415723        14.1968065568      2301.4405125796     -3096.9754845077      -420.5726993140      -112.1274394502     -2535.2153768671 
  153000       304.8037055307     11205.6036639675         0.7929614191       277.4361769140      -632.0343337579       267.0230937212       314.5077116706        10.6820965888      2317.4794670191     -3095.3313385268      -446.3953642307      -197.5335680398     -2906.3960819140 
  154000       292.0502437338     10959.2770896447         0.8107844442       259.1642931514      -612.2525547768       252.5343360440       339.0735712466         8.9951361873      2335.8852120801     -3095.0922197011      -453.6485906337       148.4757015148      -692.5403222332 
  155000       296.8065963475     11251.0347994237         0.7897594792       263.6213430479      -621.9874663361       261.2733524084       314.1949295818         7.9562719949      2313.0225952112     -3096.3134901743      -422.1211253582       161.1262148501      -624.6472978741 
  156000       295.2490580027     11142.4603657175         0.7974550586       298.4360193444      -582.5254213624       267.2054211487       331.1786012944        14.4086877080      2330.5646593951     -3096.4929501820      -429.3898407265       666.2910634848      2263.7044690839 
  157000       300.3832651508     11141.1570332682         0.7975483477       312.0033535887      -584.2774874801       262.7599050267       334.5618946438        13.2621095413      2314.6204988375     -3096.2241524900      -413.2577430394       115.9381552199     -1206.6861501606 
  158000       298.9442555611     11288.2682270795         0.7871545223       320.6613558589      -571.3257815486       256.7299008708       328.3419886962        14.4449023590      2336.4147800080     -3096.7052433967      -410.5521100860       580.8844512812      1580.6751611995 
  159000       297.2137659540     10906.9079192713         0.8146773998       317.5240047331      -569.2997136013       273.1041930240       337.0176120106        10.3680116991      2337.4144562499     -3096.4591826073      -430.7448039777       138.8896965448     -1123.0196007665 
  160000       285.7708662254     10997.6322015836         0.8079567693       256.8450149042      -595.8354838076       278.5051532494       320.2776592226         8.9956857240      2328.4201369157     -3096.6529868860      -435.3811320334       169.2305147615      -546.2618948958 
  161000       290.4101356249     11188.3075587879         0.7941872653       294.7818218629      -571.7412864807       280.6784274386       340.0789942376        13.7536344115      2331.0387622580     -3095.7321104795      -441.5589943470       686.5532537765      2401.0017589743 
  162000       318.5029503015     11308.9067800145         0.7857179793       313.8283379434      -636.5178540652       260.5400234204       292.8555174077         7.8836347534      2311.6868663851     -3097.3407742126      -412.1431218192       473.4354151072       967.7331785280 
  163000       292.3923044892     11148.8287884859         0.7969995371       263.6102566126      -608.8272290712       275.3892787765       311.0483124728        12.2435440220      2313.6701599497     -3096.7787103538      -424.3998139385       452.5006088912      1161.7284927643 
  164000       297.0233211337     11131.6398356336         0.7982302262       288.0760581375      -598.1794126829       264.5224734462       331.2398421089        23.3221191949      2318.4049911574     -3096.6752655806      -438.9935730096       258.1410627860      -184.3928850192 
  165000       285.2939332870     11019.9701661160         0.8063190054       261.2111897790      -590.0462407905       268.3223759172       344.5071591702        12.8250780484      2304.3399641247     -3098.0989338100      -421.9418842410       417.2879059710       971.1399292709 
  166000       298.0500848023     11094.8582842279         0.8008765102       303.7863959384      -585.5327229318       255.0737484025       335.2703206463        12.8089679687      2352.0203287488     -3096.2472490762      -444.4588396219       565.5827371803      1617.9530834815 
  167000       283.6010180412     11547.0721391913         0.7695120699       246.5690144147      -599.6371111176       246.6904994005       324.2711062464        13.8157241063      2319.4545235721     -3095.7832081474      -408.0857562954       254.2067145292        45.3539204380 
  168000       295.9880587592     11010.7975812663         0.8069907123       261.5751666397      -621.5912977701       262.6761909985       327.2124671271        15.1852996678      2306.2714910563     -3096.4733241945      -436.4634224254        -3.2123441112     -1648.9323130302 
  169000       299.1588698517     11474.3360651713         0.7743900242       305.6138799590      -587.0136216073       270.8764201024       329.3302755863         4.3898329751      2311.8546438713     -3095.3859994786      -408.0787946639       237.7095126181      -405.7833772429 
  170000       304.9085755801     11332.2379753088         0.7841003165       327.0895446433      -582.6938763233       236.2161335314       344.2915437096        10.7016769414      2372.2156865988     -3095.9973550907      -450.1215620139       238.5792832414      -535.5524962313 
  171000       289.0349208479     11320.5998126793         0.7849064123       271.9131931102      -590.5065619511       264.3394128849       336.6321119077        11.9495867484      2315.9445865721     -3097.1402941527      -422.2319659116       685.1365721446      2502.8772865549 
  172000       290.2523471476     11147.3240753548         0.7971071195       265.2806148791      -600.7716856479       250.5675893405       341.9828636785        14.2006053788      2322.0467401771     -3095.9507790677      -433.6187051550        98.4432415277     -1026.2350117511 
  173000       305.4976556555     11917.7318881598         0.7455790638       294.3309323695      -617.2101803419       246.5861759390       318.5825950989        13.2489089746      2288.6423673833     -3094.4749626703      -389.7952650674        84.7181311337     -1206.0027595292 
  174000       306.1829316836     11107.3957799950         0.7999725192       327.4004313229      -586.1854017379       271.3395999194       308.9744119691        14.3476100990      2344.1107412097     -3094.6871627870      -430.2706021481       438.1720235151       683.8175801141 
  175000       294.0888262518     11394.5214577919         0.7798143535       338.3145251612      -539.1850266518       285.8350399352       333.7562950783        20.6073920393      2331.5406778605     -3096.1103088787      -414.8141226864       -35.6501024631     -2250.3939175726 
  176000       302.0481761953     11287.4344647883         0.7872126666       250.7466974099      -650.5018900163       265.5657211763       287.7003894966         9.0039443201      2323.2329204283     -3096.0168464074      -439.9880190301       582.9699977137      2018.1756269740 
  177000       298.9895987603     11293.8306044281         0.7867668371       333.9111306020      -558.2113014290       297.0821571594       307.2194368438        11.4840107538      2343.3307124270     -3095.5256281778      -421.8019904352       387.8557274058       327.5146963162 
  178000       297.6584711652     11420.2414647008         0.7780581007       327.5686903472      -560.5819353320       281.5436905667       309.8076710067        10.2287097626      2355.7145002060     -3094.9347774629      -422.9417294111       169.8042553392      -947.2354227623 
  179000       296.8222117542     11018.5311626599         0.8064243094       304.7568400662      -580.8985624256       282.3260197137       308.2324355453        14.6756101942      2339.5618388049     -3095.7750779542      -429.9193887295       213.3067663574      -569.0946019283 
  180000       298.5517611980     11262.4388011549         0.7889597929       285.7730112715      -605.0430050429       278.4442908219       310.0312006178         9.7363513607      2319.0322762342     -3096.0146527017      -426.2724713758        41.7365553079     -1485.7521788199 
  181000       291.6477318668     10911.5458024193         0.8143311264       232.7288081355      -637.4870285628       241.6722804414       325.1789410259         4.9620074630      2321.3825199291     -3095.7924202079      -434.8903572144       364.3249049377       826.9530221748 
  182000       297.8661955743     11331.4108651282         0.7841575501       318.8064809188      -569.9639509536       250.9160590411       349.9780375564        17.4902743353      2335.2031327065     -3096.6549537205      -426.8965008725       538.6750056779      1330.4641787823 
  183000       290.6660825203     11210.9597123648         0.7925825809       246.3544528574      -620.9323474932       269.2398585480       301.6196072852        12.8364207733      2313.1910960318     -3095.6439979442      -422.1753321873       402.5100985764       955.0783692895 
  184000       289.3799476942     11480.4593538625         0.7739769908       300.1614888984      -563.2877541134       291.7003782892       318.4978657422        12.9952138737      2335.0692783657     -3096.1101416211      -425.4403487631       226.7220858282      -438.6256082493 
  185000       300.3371953745     11115.3318400343         0.7994013594       287.4122822651      -608.7310962264       270.5739816059       300.3183196172        10.3242445017      2340.8809929121     -3095.4284887191      -435.4001461441      -403.9284385970     -4264.7523381832 
  186000       300.3669297820     11392.4918731959         0.7799532782       313.9646866985      -582.2674130462       262.7062836541       328.8246827135         9.9360610182      2335.2256930231     -3097.0888244080      -421.8713090471       105.1681869124     -1256.6912671291 
  187000       300.7123852737     11120.2188073063         0.7990500491       283.6163565899      -613.6465100936       279.6041569107       301.9185266690        10.0512615096      2326.2406630724     -3096.7712296115      -434.6898886437       107.0610240968     -1088.6583725218 
  188000       307.9367524525     11247.0405448271         0.7900399530       346.4282565021      -572.3906109392       284.3367224533       317.5976893270        14.4426198797      2334.9614695669     -3097.1507611201      -426.5783510460       126.7317822483     -1339.3958135592 
  189000       307.9806174522     11193.7235269485         0.7938030060       341.0284249521      -577.9213264745       275.0681736675       322.3114449696        10.7243045466      2363.3103088629     -3094.9947731165      -454.3407854047        99.2720095017     -1480.9061688546 
  190000       297.8308755136     11394.9046325123         0.7797881308       305.4120817109      -583.2529624874       277.2400676467       306.7477378108        10.1836176705      2336.3140915032     -3095.8384822281      -417.8999948905       424.2690793378       715.2175644971 
  191000       295.4547988263     11430.7752343155         0.7773410990       290.6670843629      -590.9082439328       300.7147738382       294.8200179351         7.8783660762      2311.5323253609     -3096.0846855104      -409.7690416329       224.8493635483      -394.8128366328 
  192000       286.7687557885     11631.9574937052         0.7638964799       238.0448794012      -617.6131130684       264.7704253085       311.3188263069         3.5178762482      2293.4425912402     -3096.7873648505      -393.8754673218       202.7368502893      -208.1348383787 
  193000       296.5669874855     11205.4384213667         0.7929731126       279.0570003421      -605.8368663095       261.7789953024       310.0699522990         5.8727208637      2344.3163742392     -3095.4572115138      -432.4176975000       550.5708360735      1661.4497948757 
  194000       301.3705529980     11137.7238604808         0.7977941898       290.7148510899      -608.5118504337       271.2455301796       302.9869696024         2.4591585150      2346.7355555980     -3097.2267444931      -434.7123198355       142.3137923619      -913.6180344175 
  195000       288.2851072314     11503.8303301981         0.7724045930       296.6673401622      -563.5151278832       272.9437088774       316.6364968302        13.8714820599      2362.9695561793     -3096.3143024338      -433.6220693963        37.3549608787     -1545.6277019902 
  196000       284.9653199747     11339.3330026783         0.7836097045       270.6098223530      -579.6670948189       265.7086710320       305.2002014009         7.5567649519      2365.2538216208     -3095.6300955574      -427.7564582670       453.8600301870      1108.1054147215 
  197000       304.7586044912     11353.7417402540         0.7826152459       316.6851663713      -592.6507722312       260.4507739135       323.9170310745        11.7958198525      2343.3042026592     -3096.7301753673      -435.3884243636        25.2123144282     -1760.2858978560 
  198000       301.3755574864     11030.7734440890         0.8055293157       300.8271434233      -598.4144904472       252.6620579867       352.4500318090         6.3244445740      2314.7866223471     -3094.9054615188      -429.7321856453       216.9266746022      -521.5338882607 
  199000       299.3365189459     11486.8947803114         0.7735433773       337.3378870423      -555.8196822675       272.3138912586       327.4792178417        15.0951240855      2333.7115816881     -3094.5447639890      -409.8747331524       316.6630075755      -123.4140072202 
  200000       297.1830283006     11334.4144205153         0.7839497528       314.8775839993      -571.8544196061       272.4279068016       333.3009090001        17.6684674729      2314.0062460237     -3096.3554834419      -412.9024654625        97.2372327712     -1316.6321055585 
  201000       286.0133803104     11384.9801849316         0.7804678831       230.6329065351      -622.7712034870       257.9820431522       306.3030542225         7.1998274028      2325.8058683693     -3095.1143610867      -424.9476355471      -282.5463764666     -3090.7291426680 
  202000       310.4847104980     11545.0020906970         0.7696500454       357.0350913002      -569.3863500690       268.4441658047       344.6800272271        13.3139510906      2318.8060365704     -3094.9998306241      -419.6307001377       428.6136062913       425.1212154346 
  203000       293.8624848318     11625.0235598162         0.7643521183       300.3909010442      -576.4332953085       261.0850680901       322.8760353976         8.3517458225      2330.8426584992     -3095.6689638437      -403.9198392742       375.6784406678       444.0719827083 
  204000       295.6305513014     11474.0747505580         0.7744076605       302.5918901452      -579.5078467796       284.9799456798       323.2355047815        14.4203067582      2317.0993202304     -3095.4142209860      -423.8287032434      -306.1695367000     -3637.9234979177 
  205000       297.2051489708     10982.5243007505         0.8090682197       299.9334368010      -586.8645702578       270.6734870032       314.6686067645        16.4003014309      2351.8113421421     -3095.6224314985      -444.7958760999       642.9777655045      2141.7667969403 
  206000       294.2515810039     11266.5949920224         0.7886687495       325.4687019688      -552.5164759858       274.5197877034       352.1340243623         9.2775109085      2335.4051033561     -3095.5615411465      -428.2913611697       603.6322182537      1692.9011325951 
  207000       295.0971573607     11044.5434307688         0.8045250072       270.0974472397      -610.4107537199       265.0840850327       316.9739408388        13.0764157146      2312.2585008674     -3094.0872252726      -423.7164709008       267.8864134357       -13.7268764803 
  208000       288.6020817511     11045.6684599366         0.8044430643       303.0292971268      -558.0989565936       284.9451762780       341.4635570388        11.6945002507      2328.5528642506     -3096.8496147747      -427.9054396370       131.0012454646     -1067.9019455271 
  209000       284.0127533645     11422.2314117247         0.7779225497       287.0956606456      -560.3389969810       283.6984496438       350.4717347833        14.2362486516      2306.8248353639     -3095.6011500281      -419.9691153954       676.7416348725      2339.0707035089 
  210000       303.6954228690     11205.7793576727         0.7929489864       312.7964821115      -593.3671448840       271.5332383820       314.3871016871        13.6062331182      2320.2721816978     -3094.7125382616      -418.4533615075       473.8515077730       985.4993111060 
Loop time of 58.5058 on 64 procs for 100000 steps with 1002 atoms

Performance: 147.678 ns/day, 0.163 hours/ns, 1709.231 timesteps/s
99.3% CPU use with 64 MPI tasks x no OpenMP threads

MPI task timing breakdown:
Section |  min time  |  avg time  |  max time  |%varavg| %total
---------------------------------------------------------------
Pair    | 11.92      | 18.171     | 24.917     |  93.0 | 31.06
Bond    | 0.46228    | 0.49565    | 0.53       |   2.2 |  0.85
Kspace  | 15.9       | 22.696     | 28.978     |  83.1 | 38.79
Neigh   | 1.5295     | 1.5431     | 1.5566     |   0.5 |  2.64
Comm    | 12.638     | 12.745     | 12.874     |   1.6 | 21.78
Output  | 0.047348   | 0.047389   | 0.047991   |   0.0 |  0.08
Modify  | 1.98       | 2.0703     | 2.1307     |   2.3 |  3.54
Other   |            | 0.7368     |            |       |  1.26

Nlocal:    15.6562 ave 23 max 8 min
Histogram: 3 1 5 10 13 4 15 6 5 2
Nghost:    4746.5 ave 4847 max 4648 min
Histogram: 3 3 7 11 8 14 4 7 4 3
Neighs:    12020.4 ave 23892 max 5639 min
Histogram: 5 11 13 12 11 4 5 2 0 1

Total # of neighbors = 769305
Ave neighs/atom = 767.769
Ave special neighs/atom = 5
Neighbor list builds = 3780
Dangerous builds = 0
unfix equil
undump equil

# WRITE RESTART FILES, CLEANUP, AND EXIT
write_restart   md-13.end.restart
PPPM initialization ...
WARNING: Using 12-bit tables for long-range coulomb (../kspace.cpp:321)
  G vector (1/distance) = 0.186453
  grid = 8 8 8
  stencil order = 5
  estimated absolute RMS force accuracy = 0.00731596
  estimated relative force accuracy = 2.20318e-05
  using double precision FFTs
  3d grid and FFT values/proc = 343 8
write_data      md-13.end.data pair ii
PPPM initialization ...
WARNING: Using 12-bit tables for long-range coulomb (../kspace.cpp:321)
  G vector (1/distance) = 0.186453
  grid = 8 8 8
  stencil order = 5
  estimated absolute RMS force accuracy = 0.00731596
  estimated relative force accuracy = 2.20318e-05
  using double precision FFTs
  3d grid and FFT values/proc = 343 8
unfix		averages
Total wall time: 0:03:09
