
#===========================================================
# GENERAL PROCEDURES
#===========================================================
units		real	# g/mol, angstroms, fs, kcal/mol, K, atm, charge*angstrom
dimension	3	# 3 dimensional simulation
newton		on	# use Newton's 3rd law
boundary	p p p	# periodic boundary conditions
atom_style	full    # molecular + charge

#===========================================================
# FORCE FIELD DEFINITION
#===========================================================
special_bonds  lj   0.0 0.0 0.0  coul 0.0 0.0 0.0     # NO     1-4 LJ/COUL interactions
pair_style     hybrid lj/cut/coul/long 14.0 14.0 # outer_LJ outer_Coul (cutoff values, see LAMMPS Doc)
kspace_style   pppm 0.0001          # long-range electrostatics sum method
bond_style     harmonic             # parameters needed: k_bond, r0
angle_style    harmonic             # parameters needed: k_theta, theta0
dihedral_style hybrid opls            # parameters needed: V1, V2, V3, V4
pair_modify    shift yes mix arithmetic       # using Lorenz-Berthelot mixing rules

#===========================================================
# SETUP SIMULATIONS
#===========================================================

# READ IN COEFFICIENTS/COORDINATES/TOPOLOGY
read_data ${data_name}
read_data md-11.data
  orthogonal box = (-11.1952 -11.1952 -11.1952) to (11.1952 11.1952 11.1952)
  4 by 4 by 4 MPI processor grid
  reading atoms ...
  1002 atoms
  reading velocities ...
  1002 velocities
  scanning bonds ...
  1 = max bonds/atom
  scanning angles ...
  6 = max angles/atom
  scanning dihedrals ...
  3 = max dihedrals/atom
  reading bonds ...
  835 bonds
  reading angles ...
  1169 angles
  reading dihedrals ...
  501 dihedrals
  4 = max # of 1-2 neighbors
  3 = max # of 1-3 neighbors
  4 = max # of 1-4 neighbors
  5 = max # of special neighbors
include ${settings_name}
include md-11.in.settings
     # Non-bonded interactions (pair-wise)
     pair_coeff           1          1          lj/cut/coul/long     0.010681             2.467610
     pair_coeff           1          2          lj/cut/coul/long     0.002139             2.246578
     pair_coeff           1          3          lj/cut/coul/long     0.030128             3.124425
     pair_coeff           1          4          lj/cut/coul/long     0.041282             2.733756
     pair_coeff           2          2          lj/cut/coul/long     0.001000             1.775878
     pair_coeff           2          3          lj/cut/coul/long     0.003837             3.067485
     pair_coeff           2          4          lj/cut/coul/long     0.006138             2.615602
     pair_coeff           3          3          lj/cut/coul/long     0.199278             3.432247
     pair_coeff           3          4          lj/cut/coul/long     0.178523             3.223502
     pair_coeff           4          4          lj/cut/coul/long     0.202184             2.911443

     # Stretching interactions
     bond_coeff           1           366.904251           1.096103
     bond_coeff           2           612.219900           0.957501
     bond_coeff           3           368.709924           1.411527

     # Bending interactions
     angle_coeff          1           40.926667            108.205025
     angle_coeff          2           61.328715            112.232133
     angle_coeff          3           49.873049            108.741688

     # Dihedral interactions
     dihedral_coeff       1          opls                  0.105414            -0.205941             0.372587            -0.070860

# SET RUN PARAMETERS
timestep	1.0		# fs
run_style	verlet 		# Velocity-Verlet integrator
neigh_modify every 1 delay 0 check no one 10000 # More relaxed rebuild criteria can be used

#===========================================================
# RUN CONSTRAINED RELAXATION
#===========================================================

# SET OUTPUTS
thermo_style    custom step temp vol density etotal pe ebond eangle edihed ecoul elong evdwl enthalpy press
thermo_modify   format float %20.10f
thermo ${thermo_freq}
thermo 1000

# DECLARE RELEVANT OUTPUT VARIABLES
variable        my_step equal   step
variable        my_temp equal   temp
variable        my_rho  equal   density
variable        my_pe   equal   pe
variable        my_ebon equal   ebond
variable        my_eang equal   eangle
variable        my_edih equal   edihed
variable        my_evdw equal   evdwl
variable        my_eel  equal   (ecoul+elong)
variable        my_ent  equal   enthalpy
variable        my_P    equal   press
variable        my_vol  equal   vol

fix  averages all ave/time ${dump4avg} $(v_avg_freq/v_dump4avg) ${avg_freq} v_my_temp v_my_rho v_my_vol v_my_pe v_my_edih v_my_evdw v_my_eel v_my_ent v_my_P file thermo.avg
fix  averages all ave/time 100 $(v_avg_freq/v_dump4avg) ${avg_freq} v_my_temp v_my_rho v_my_vol v_my_pe v_my_edih v_my_evdw v_my_eel v_my_ent v_my_P file thermo.avg
fix  averages all ave/time 100 10 ${avg_freq} v_my_temp v_my_rho v_my_vol v_my_pe v_my_edih v_my_evdw v_my_eel v_my_ent v_my_P file thermo.avg
fix  averages all ave/time 100 10 1000 v_my_temp v_my_rho v_my_vol v_my_pe v_my_edih v_my_evdw v_my_eel v_my_ent v_my_P file thermo.avg

# INITIALIZE VELOCITIES AND CREATE THE CONSTRAINED RELAXATION FIX
velocity        all create ${ANNEAL_TEMP} ${vseed} mom yes rot yes     # DRAW VELOCITIES
velocity        all create 100.0 ${vseed} mom yes rot yes     
velocity        all create 100.0 54694 mom yes rot yes     

fix relax all nve/limit 0.01
run             10000
PPPM initialization ...
WARNING: Using 12-bit tables for long-range coulomb (../kspace.cpp:321)
  G vector (1/distance) = 0.186418
  grid = 8 8 8
  stencil order = 5
  estimated absolute RMS force accuracy = 0.0073285
  estimated relative force accuracy = 2.20696e-05
  using double precision FFTs
  3d grid and FFT values/proc = 343 8
Neighbor list info ...
  update every 1 steps, delay 0 steps, check no
  max neighbors/atom: 10000, page size: 100000
  master list distance cutoff = 16
  ghost atom cutoff = 16
  binsize = 8, bins = 3 3 3
  1 neighbor lists, perpetual/occasional/extra = 1 0 0
  (1) pair lj/cut/coul/long, perpetual
      attributes: half, newton on
      pair build: half/bin/newton
      stencil: half/bin/3d/newton
      bin: standard
Per MPI rank memory allocation (min/avg/max) = 8.556 | 8.676 | 9.157 Mbytes
Step Temp Volume Density TotEng PotEng E_bond E_angle E_dihed E_coul E_long E_vdwl Enthalpy Press 
       0       100.0000000000     11225.1188856440         0.7915828308      -281.4972402761      -579.8763262811       268.0202272988       328.8649108065         9.2506763737      2321.6226177066     -3101.1553989943      -406.4793594724      -612.8186047887     -2023.8699519985 
    1000        25.5387944755     11225.1188856440         0.7915828308     -1392.8836603122     -1469.0860818449         9.0566647987        17.8373223222       -35.8845366260      2081.7081199482     -3103.6571383398      -438.1465139483     -1852.0559776532     -2804.8449493232 
    2000        20.0897449471     11225.1188856440         0.7915828308     -1433.3175353860     -1493.2611327398         8.8125738334        17.4510965621       -36.5235691282      2054.2666152152     -3103.6519783088      -433.6158709134     -1863.4208949660     -2627.2778001748 
    3000        16.4871290184     11225.1188856440         0.7915828308     -1460.3278620886     -1509.5220069621         8.5375595274        17.3530759767       -37.7897307962      2049.5145660393     -3103.6426195360      -443.4948581732     -1875.5931205328     -2536.6395551051 
    4000        15.5489463442     11225.1188856440         0.7915828308     -1475.6254818701     -1522.0202858553         8.5294704722        17.5894300857       -37.7832965670      2051.9022807318     -3103.6915054169      -458.5666651611     -1882.4695019864     -2485.1985886119 
    5000        13.6073967639     11225.1188856440         0.7915828308     -1486.4949152702     -1527.0965413635         8.8290828985        16.8014916106       -37.4027669785      2047.7458555095     -3103.8127863646      -459.2574180391     -1936.4843929958     -2748.7517565429 
    6000        14.1941823777     11225.1188856440         0.7915828308     -1494.3300909844     -1536.6825626289         8.4989915975        17.1600972431       -37.8758691245      2039.7750182417     -3103.1536894908      -461.0871110959     -1855.5289927326     -2206.3762927532 
    7000        13.3387098546     11225.1188856440         0.7915828308     -1502.5012516171     -1542.3011721662         8.6952097205        16.9978574378       -37.0251327548      2034.2982496839     -3103.6384732978      -461.6288829558     -1899.5866152857     -2425.5880301878 
    8000        12.5014882403     11225.1188856440         0.7915828308     -1508.5424313709     -1545.8442577193         8.8601054804        17.4338617953       -37.6737634777      2041.5398573065     -3103.6610089094      -472.3433099144     -1868.9988002666     -2201.8405456214 
    9000        12.2880947550     11225.1188856440         0.7915828308     -1514.1325413348     -1550.7976461522         8.4047611166        16.8367169529       -38.6250829705      2037.8749855743     -3103.5404414856      -471.7485853399     -1889.8277170193     -2294.9264931864 
   10000        11.6709404321     11225.1188856440         0.7915828308     -1519.7548693274     -1554.5785147170         8.3042643033        16.3437275022       -38.2277780270      2022.1767649363     -3103.6471928740      -459.5283005578     -1870.1890276441     -2140.6200720387 
Loop time of 11.38 on 64 procs for 10000 steps with 1002 atoms

Performance: 75.923 ns/day, 0.316 hours/ns, 878.737 timesteps/s
99.0% CPU use with 64 MPI tasks x no OpenMP threads

MPI task timing breakdown:
Section |  min time  |  avg time  |  max time  |%varavg| %total
---------------------------------------------------------------
Pair    | 0.68315    | 1.8267     | 3.0734     |  39.9 | 16.05
Bond    | 0.022694   | 0.045683   | 0.06997    |   4.7 |  0.40
Kspace  | 0.97585    | 2.2254     | 3.3754     |  36.2 | 19.56
Neigh   | 3.8888     | 4.0774     | 4.1859     |   3.7 | 35.83
Comm    | 2.9847     | 3.1045     | 3.3025     |   4.5 | 27.28
Output  | 0.0015442  | 0.0019177  | 0.0019341  |   0.1 |  0.02
Modify  | 0.0081863  | 0.0093657  | 0.010687   |   0.5 |  0.08
Other   |            | 0.08902    |            |       |  0.78

Nlocal:    15.6562 ave 23 max 1 min
Histogram: 1 2 0 4 4 9 14 7 15 8
Nghost:    4735.72 ave 5058 max 4356 min
Histogram: 4 4 3 6 11 11 7 7 7 4
Neighs:    11973.5 ave 20414 max 876 min
Histogram: 1 4 5 1 15 10 11 5 7 5

Total # of neighbors = 766304
Ave neighs/atom = 764.774
Ave special neighs/atom = 5
Neighbor list builds = 10000
Dangerous builds not checked
unfix relax

#===========================================================
# RUN RAMPED ANNEAL
#===========================================================

# REINITIALIZE THE VELOCITIES AND CREATE THE ANNEALING FIX
velocity        all create ${ANNEAL_TEMP} ${vseed} mom yes rot yes     # DRAW VELOCITIES
velocity        all create 100.0 ${vseed} mom yes rot yes     
velocity        all create 100.0 54694 mom yes rot yes     

fix mom all momentum 1000 linear 1 1 1 angular # Zero out system linear and angular momentum every ps
fix anneal all npt temp ${ANNEAL_TEMP} ${FINAL_TEMP} 100.0 iso ${pressure} ${pressure} 1000.0 # NPT, nose-hoover 100 fs T relaxation
fix anneal all npt temp 100.0 ${FINAL_TEMP} 100.0 iso ${pressure} ${pressure} 1000.0 
fix anneal all npt temp 100.0 298.0 100.0 iso ${pressure} ${pressure} 1000.0 
fix anneal all npt temp 100.0 298.0 100.0 iso 1.0 ${pressure} 1000.0 
fix anneal all npt temp 100.0 298.0 100.0 iso 1.0 1.0 1000.0 

# CREATE COORDINATE DUMPS FOR ANNEAL
dump anneal all custom ${coords_freq} anneal.lammpstrj id type x y z mol
dump anneal all custom 1000 anneal.lammpstrj id type x y z mol
dump_modify anneal sort id format float %20.10g

# RUN RAMPED ANNEAL
run ${nSteps_ramp}
run 50000
PPPM initialization ...
WARNING: Using 12-bit tables for long-range coulomb (../kspace.cpp:321)
  G vector (1/distance) = 0.186418
  grid = 8 8 8
  stencil order = 5
  estimated absolute RMS force accuracy = 0.0073285
  estimated relative force accuracy = 2.20696e-05
  using double precision FFTs
  3d grid and FFT values/proc = 343 8
Per MPI rank memory allocation (min/avg/max) = 9.829 | 10.34 | 10.55 Mbytes
Step Temp Volume Density TotEng PotEng E_bond E_angle E_dihed E_coul E_long E_vdwl Enthalpy Press 
   10000       100.0000000000     11225.1188856440         0.7915828308     -1256.1994287120     -1554.5785147170         8.3042643033        16.3437275022       -38.2277780270      2022.1767649363     -3103.6471928740      -459.5283005578     -1430.9299599517     -1067.3379677552 
   11000        92.0603050786      9838.8738543312         0.9031126443     -1023.9545971001     -1298.6432939671        99.7612738731       101.7800783517       -22.6636502555      2118.9998663862     -3102.7424922818      -493.7783700407     -1621.1934802901     -4162.2368782256 
   12000       108.7701197677      9784.5006824337         0.9081313060      -991.7851703638     -1316.3324595733        77.1465599215       102.8472363067       -19.6306708583      2118.5495879800     -3103.4330089273      -491.8121639958      -723.4074351105      1880.7537067931 
   13000       113.8347100409      9771.2463068705         0.9093631564      -958.3036347869     -1297.9626021633        94.5947558041       109.6302686180       -11.9164009853      2117.2805924156     -3103.4392590218      -504.1125589940      -968.8203759189       -73.7998252980 
   14000       118.1965908041      9548.9922577509         0.9305287033      -938.2834171730     -1290.9573245032        87.7337751675       116.3648136358        -8.2451673800      2119.4671502037     -3102.9598417184      -503.3180544119      -623.1086245443      2263.1745209511 
   15000       120.0543455929      9744.1077986273         0.9118958418      -903.6916220946     -1261.9086811839        99.3133872423       120.8333819158       -16.3588492106      2126.8533540180     -3103.0596083011      -489.4903468483      -716.8838592495      1314.5495177904 
   16000       128.1689854631      9613.3372801633         0.9243003886      -858.4488402026     -1240.8782875692       101.8199739161       137.5795810201        -3.4604226761      2124.1189748819     -3103.6453578123      -497.2910368989      -588.8534156688      1922.9254537523 
   17000       126.7232468756      9539.9016579282         0.9314154068      -870.4216743645     -1248.5373401478       119.0271584653       128.4444584534       -12.6192367442      2131.3613133417     -3103.1235366720      -511.6274969921      -869.6793163899         5.3357268765 
   18000       127.0712469733      9573.0507244883         0.9281901495      -865.9071800534     -1245.0612053476       105.2689037306       134.2938661230        -3.3040361374      2138.5344535392     -3102.2533699045      -517.6010226985      -749.4893538155       833.8601823615 
   19000       131.9187121209      9627.3748539305         0.9229526759      -851.3410740150     -1244.9589215109       105.7841323443       141.5903285627       -11.8992225331      2104.7607357517     -3102.7632402331      -482.4316554033      -762.0364261660       636.0485852113 
   20000       137.1201828230      9627.3013956432         0.9229597182      -812.1301828871     -1221.2681311227       123.3999775505       135.7985851119        -9.9391971418      2140.2850707908     -3103.1320833029      -507.6804841311     -1131.1309224562     -2272.0151989813 
   21000       145.9090622265      9749.4906119502         0.9113923729      -762.6419037443     -1198.0040300143       113.4900417489       142.3554754670        -7.6646738241      2143.7843443050     -3103.5897776301      -486.3794400808      -548.4923644891      1506.1191465440 
   22000       150.5677374959      9672.2317139767         0.9186723030      -725.4683051778     -1174.7309441366       121.0872014441       156.0534841068         0.8438897413      2135.5433295973     -3102.7646169137      -485.4942321124      -508.4632910034      1538.3926180643 
   23000       147.3570783795      9631.4644381150         0.9225607841      -726.9880495383     -1166.6707531707       134.7804666696       159.5155663694        -6.1939863335      2140.7139180751     -3102.1033995275      -493.3833184239      -849.1964647261      -870.0273341533 
   24000       152.3917865039      9937.4105547294         0.8941576213      -667.8039937276     -1122.5092134445       144.8250048644       165.3761374267        -3.2392559636      2149.6474478366     -3103.7081975592      -475.4103500495      -716.6334840541      -336.9248697645 
   25000       157.6292412498      9839.2631177919         0.9030769151      -672.3526319340     -1142.6853212517       132.3504382449       163.5027633577        -8.5593160904      2163.1878456261     -3103.2024712001      -489.9645811899      -724.6929626670      -364.7522660963 
   26000       160.1061763342      9848.9678848813         0.9021870604      -661.7545017761     -1139.4778473596       133.2147278960       165.1678976259        -2.9679014269      2155.6066541467     -3102.2370005274      -488.2622250738      -619.3220456341       295.4143313515 
   27000       170.6640638706      9708.0735927132         0.9152805960      -608.8978720820     -1118.1237459982       143.1220662428       175.7163433070       -10.3530298121      2169.9160566010     -3103.2380170384      -493.2871652987     -1012.9084576900     -2853.5388853204 
   28000       166.3124563830      9711.1296438799         0.9149925611      -615.0513131379     -1111.2929004058       150.0173785869       173.6606296281        -0.8145224759      2169.3698363322     -3102.7592263659      -500.7669961112      -798.8033561896     -1297.4377654414 
   29000       172.9973930961      9761.2869135996         0.9102909752      -599.4911325105     -1115.6791728430       141.5242111142       177.5727967599       -11.8874506378      2179.4509561708     -3103.2691978189      -499.0704884312      -260.8116170242      2379.0631066803 
   30000       181.8775209259      9928.6667123304         0.8949450758      -539.4610979188     -1082.1455825060       151.1665693571       187.9453100780        -3.3828913699      2177.6299936618     -3102.8408970391      -492.6636671940      -529.3949146119        69.5181190436 
   31000       180.5764424642     10067.6570918407         0.8825897925      -492.4664291106     -1031.2687676755       167.6404698245       210.9672759396        -5.5282104417      2161.1761283891     -3102.3154579263      -463.2089734607      -558.5143278419      -449.8365100013 
   32000       190.6677889758     10038.5135268183         0.8851521054      -483.0180076661     -1051.9308137180       154.1752394772       199.8564985776        -0.8890404089      2176.1676258529     -3103.0315207037      -478.2096165131      -897.1942170438     -2829.0449708381 
   33000       191.1489181315      9910.6733454449         0.8965698973      -452.2966351414     -1022.6450299705       156.9842226119       200.0774603563        -0.1832898016      2210.8023475686     -3102.5321886741      -487.7935820316     -1077.5125734461     -4325.6461420955 
   34000       192.6076410778     10000.3353213197         0.8885313440      -422.2489205546      -996.9498395784       166.2839077398       216.1123914247         2.1042157471      2208.3722449197     -3103.1565286033      -486.6660708064      -458.0354954603      -245.3746440218 
   35000       205.7365033296     10109.8370728891         0.8789074759      -379.3387460718      -993.2134442852       156.8003133878       221.1054579531        -3.8030373052      2214.1439498651     -3101.6283661541      -479.8317620318      -428.1163467049      -330.8265740386 
   36000       214.9545785935     10217.8470041758         0.8696167970      -331.0812902479      -972.4607971811       185.0555483731       219.7836826094         2.9198450241      2189.2503957797     -3103.3159131185      -466.1543558488      -491.2219615118     -1074.6483090920 
   37000       200.2559432394     10211.6864388672         0.8701414244      -389.2902482866      -986.8121013949       167.7428671268       224.9817285788        -3.6896265295      2195.3132550913     -3102.1607306835      -468.9995949787      -348.5408158228       273.6202304012 
   38000       216.4344304786      9933.8785947932         0.8944755363      -331.4987246661      -977.2938001283       170.2799106109       226.9594202242        -4.1141420243      2211.4459896207     -3102.8949030769      -478.9700754828       223.2866735255      3829.3960466846 
   39000       218.5753030904     10394.0995268869         0.8548707236      -297.6580124160      -949.8410040099       187.5093697651       230.0872231082         5.4779303457      2166.4989554485     -3103.1823270253      -436.2321556521        28.1673665651      2149.4242715032 
   40000       222.4090545139     10369.8086446851         0.8568732257      -256.5869740570      -920.2090781081       200.7124330364       235.6412664442         0.0702949567      2202.4419841950     -3102.9620712903      -456.1129854500      -496.4426337006     -1586.0005689663 
   41000       211.8469607511     10336.4870258071         0.8596355185      -277.0367214003      -909.1437466189       196.7297346091       244.5450726920         8.2745319102      2211.1830529547     -3102.6311120389      -467.2450267461      -144.2651054940       880.7575762400 
   42000       218.6700649511     10168.2138246814         0.8738615785      -237.1698516270      -889.6355927946       200.5087693891       245.8092813369         7.8813567745      2222.6108953208     -3102.2200011382      -464.2258944776        79.2424498697      2133.6972622924 
   43000       236.4775815907     10276.6286610849         0.8646426446      -161.9504266810      -867.5500732381       206.1667107116       260.6216488020         3.4055808684      2206.2207629353     -3102.4872940586      -441.4774824967        68.8085852124      1539.6858458463 
   44000       229.0188011123     10205.6240061816         0.8706583133      -197.5597422561      -880.9039477947       217.6138682771       245.1305941400        -4.8555849668      2244.0480510055     -3102.6566020298      -480.1842742207      -228.3932454051      -207.1607222193 
   45000       239.0712794542     10823.5680089133         0.8209502981       -98.4182060679      -811.7569046039       224.1719185443       253.7162595232         6.7431724236      2244.9408680657     -3102.1499845144      -439.1791386463       -59.8224501069       244.5080780935 
   46000       256.7111387489     10492.7724682087         0.8468316082       -46.7426773022      -812.7150267743       233.8768186658       251.9268845451         2.0648089733      2247.4806169371     -3101.5611036167      -446.5030522788        11.8629688162       382.9775473132 
   47000       250.2403177642     10572.9558238972         0.8404093928       -55.4849647648      -802.1497377258       222.5892795934       270.2050202233         5.8746213034      2234.8547141792     -3103.1357121811      -432.5376608439      -338.6635517691     -1836.4880357237 
   48000       254.0030066546     10552.4082121797         0.8420458349         0.2663894394      -757.6254602417       224.1468121330       296.8712252327         4.9864121884      2262.8377769210     -3102.8536925586      -443.6139941581        -3.2500683697       -22.8495650981 
   49000       251.8586253584     10566.8555151033         0.8408945661       -37.9837880553      -789.4772524245       223.0516194469       275.0600639204         1.6219936563      2248.7163540833     -3101.7457049608      -436.1815785705        38.5650624938       496.7261400258 
   50000       250.6398021028     10613.8377131474         0.8371723427       -24.1947058975      -772.0514565766       217.8209556133       295.9941800425         2.6118602425      2244.7370746944     -3101.4425515997      -431.7729755697      -290.2691021266     -1718.9163914683 
   51000       265.5840857838     10933.8135067316         0.8126726671        81.0903208115      -711.3570469249       232.6632455496       306.2932707951         9.8399455741      2261.5703608057     -3101.9209395084      -419.8029301411       699.5491897965      3878.4953084197 
   52000       266.8972466840     11049.5045257058         0.8041637852        61.5515035111      -734.8140617172       225.6486067089       299.0850378975         7.2930264699      2235.5082912842     -3100.8384209610      -401.5106031168       266.6752967565      1272.9089660901 
   53000       263.5969715997     10835.1919184186         0.8200695890        57.8442292190      -728.6740053769       252.8324253810       281.1232327327         6.5323703427      2261.0674233647     -3102.9907824693      -427.2386747287       -75.8726461300      -846.2013659253 
   54000       271.3080916616     10643.9118064855         0.8348069342        65.6533752250      -743.8732289324       233.7843359729       288.6733604488         9.9562607062      2272.9595368712     -3102.2503009566      -446.9964219750      -465.5935521180     -3422.3094332046 
   55000       275.9882908119     10645.3855674137         0.8346913625       163.1154348483      -660.3759047572       257.7788478430       307.8078419512        15.0372351517      2296.9149855317     -3099.8350333919      -438.0797818429      -107.3664559992     -1742.2116300218 
   56000       288.9191995110     10969.3314454664         0.8100412890       199.2053772489      -662.8690895449       242.2347340826       307.2318223333         7.9432348665      2322.8951565505     -3100.0967761688      -443.0772612091        19.0857757671     -1125.9132468953 
   57000       296.5998815933     11026.7231308288         0.8058252010       228.1144184351      -656.8775973548       257.2540566682       312.0343749586        19.7295652576      2284.4828567890     -3100.8725163662      -429.5059346619      -397.1360494538     -3888.0484303889 
   58000       285.7954875481     10968.9617174830         0.8100685929       256.5138159700      -596.2401476195       266.0093661631       335.4521463074        11.9616515762      2319.8068850792     -3101.4284956306      -428.0417011149       473.2144379143      1354.6239433539 
   59000       302.8035182326     11275.4238993772         0.7880512044       299.9820681891      -603.5203019044       282.5251023140       312.1109534655        14.2814475015      2302.9462441649     -3101.5961921786      -413.7878571717       248.5504078868      -312.7676138137 
   60000       296.2960216234     11493.8134139138         0.7730777474       293.4030870178      -590.6822741712       268.1591326554       322.3284979003        19.6155468355      2317.9123386745     -3101.7957731653      -416.9020170717       300.6450917939        43.2034844341 
Loop time of 63.4279 on 64 procs for 50000 steps with 1002 atoms

Performance: 68.109 ns/day, 0.352 hours/ns, 788.296 timesteps/s
99.3% CPU use with 64 MPI tasks x no OpenMP threads

MPI task timing breakdown:
Section |  min time  |  avg time  |  max time  |%varavg| %total
---------------------------------------------------------------
Pair    | 7.1739     | 10.983     | 15.208     |  65.9 | 17.32
Bond    | 0.21837    | 0.26439    | 0.31618    |   4.4 |  0.42
Kspace  | 7.4257     | 11.705     | 15.525     |  64.2 | 18.45
Neigh   | 21.735     | 21.888     | 22.046     |   1.8 | 34.51
Comm    | 16.56      | 16.782     | 16.951     |   2.4 | 26.46
Output  | 0.029188   | 0.029243   | 0.029589   |   0.0 |  0.05
Modify  | 1.0226     | 1.1089     | 1.1953     |   3.5 |  1.75
Other   |            | 0.666      |            |       |  1.05

Nlocal:    15.6562 ave 24 max 8 min
Histogram: 3 4 8 10 5 11 14 5 2 2
Nghost:    4643.75 ave 4761 max 4515 min
Histogram: 4 7 2 9 6 9 9 6 7 5
Neighs:    11698.8 ave 22015 max 5454 min
Histogram: 5 12 9 11 11 6 1 6 2 1

Total # of neighbors = 748724
Ave neighs/atom = 747.23
Ave special neighs/atom = 5
Neighbor list builds = 50000
Dangerous builds not checked
unfix anneal

# RUN EQUILIBRATION PHASE AT FINAL TEMP
fix anneal all npt temp ${FINAL_TEMP} ${FINAL_TEMP} 100.0 iso ${pressure} ${pressure} 1000.0 # NPT, nose-hoover 100 fs T relaxation
fix anneal all npt temp 298.0 ${FINAL_TEMP} 100.0 iso ${pressure} ${pressure} 1000.0 
fix anneal all npt temp 298.0 298.0 100.0 iso ${pressure} ${pressure} 1000.0 
fix anneal all npt temp 298.0 298.0 100.0 iso 1.0 ${pressure} 1000.0 
fix anneal all npt temp 298.0 298.0 100.0 iso 1.0 1.0 1000.0 
run ${nSteps_ramp}
run 50000
PPPM initialization ...
WARNING: Using 12-bit tables for long-range coulomb (../kspace.cpp:321)
  G vector (1/distance) = 0.185934
  grid = 8 8 8
  stencil order = 5
  estimated absolute RMS force accuracy = 0.00750262
  estimated relative force accuracy = 2.25939e-05
  using double precision FFTs
  3d grid and FFT values/proc = 343 8
Per MPI rank memory allocation (min/avg/max) = 10.44 | 10.54 | 10.55 Mbytes
Step Temp Volume Density TotEng PotEng E_bond E_angle E_dihed E_coul E_long E_vdwl Enthalpy Press 
   60000       296.2960216234     11493.8134139138         0.7730777474       293.4073467236      -590.6780144655       268.1591326554       322.3284979003        19.6155468355      2309.8944368059     -3093.7736115909      -416.9020170717       300.6674275122        43.3113201444 
   61000       295.7266812071     10994.5124613941         0.8081860305       254.3881368312      -627.9984316275       268.0386997730       315.4429600485         4.5133574073      2327.5651329772     -3092.0531693846      -451.5054124489        -8.0167137218     -1636.5150118212 
   62000       303.2780015779     11385.7539937169         0.7804148402       309.1903966049      -595.7277325575       265.3814428626       319.1643747210        10.1795382800      2324.8994916077     -3093.7673885280      -421.5851915007        81.9354256808     -1368.5973863243 
   63000       295.9427526140     11172.4255869338         0.7953162287       282.8104755349      -600.2208048128       285.8610597873       305.0904680348        10.7689210174      2312.7179471479     -3091.6490942892      -423.0101065110       100.7516166620     -1117.3480004397 
   64000       297.8180223571     11307.7430296823         0.7857988425       263.9228191890      -624.7038738782       258.7875170182       316.9216158859         8.4739702301      2285.3908256416     -3093.2789923387      -400.9988103152        31.6928217764     -1408.2069955279 
   65000       295.4710066879     11333.1044306707         0.7840403693       319.1279822643      -562.4957069006       270.6081312851       335.3730346368        10.0767838364      2335.2765773299     -3093.2619774749      -420.5682565139       596.9201180701      1680.7192211269 
   66000       307.8323354109     11129.8403685079         0.7983592836       298.3332822201      -620.1740266069       249.5070919072       319.5920013542        12.5948633967      2306.6350821984     -3094.2582728287      -414.2447926347       462.0721621053      1008.7579961498 
   67000       303.7422142696     11509.9575842814         0.7719934082       327.7088418647      -578.5944008843       260.5163764401       331.4471724721         9.9922034071      2322.6627733783     -3092.0687923664      -411.1441342154       234.7330106839      -553.8860878235 
   68000       308.1838982854     10941.0315628516         0.8121365278       266.2475236871      -653.3087752315       277.3483680056       300.8323604190         5.5056363547      2304.3690167391     -3093.1363950409      -448.2277617090       189.7778943919      -479.2419477353 
   69000       293.9091681179     11512.6648962940         0.7718118666       263.3552658913      -613.6082236237       270.1550535775       316.5406752139        11.3643194313      2303.8930700819     -3093.0815708934      -422.4797710349       267.4851244606        24.5970727737 
   70000       301.0809257766     11112.2906062119         0.7996201412       303.6445701953      -594.7179442723       284.1724553012       318.7784593779        10.5629724419      2316.6819552880     -3091.7799391175      -433.1338475638        10.7500768307     -1807.3061517136 
   71000       311.4265691166     11372.5575543178         0.7813204146       332.4351725509      -596.7965779559       268.4698233276       314.7431491399        18.8346577915      2312.5012825141     -3091.8075475839      -419.5379431452       392.8001808024       363.9579678980 
   72000       302.7959745293     11039.3073575827         0.8049066029       293.1387669423      -610.3410943182       260.0534554074       309.5432982953        19.3694062388      2318.0603106855     -3093.7871239806      -423.5804409646       600.8458860126      1911.2602589485 
   73000       299.0854086100     11301.0546494419         0.7862639072       280.7879712144      -611.6203373704       254.6691988465       328.8360972476         5.8415560752      2296.5803827031     -3093.0222536957      -404.5253185471       689.6568842035      2480.7855705588 
   74000       293.6069637495     10967.1108094093         0.8102053073       303.4176991757      -572.6440757071       275.1848936448       319.4596709262         8.1301173637      2326.7223937092     -3093.0057554033      -409.1353959476       344.1772196405       254.8360970359 
   75000       306.5926315572     11573.4870682134         0.7677557620       327.1903927041      -587.6178990949       267.8130322070       312.0029417651        14.3481194409      2328.9997842595     -3094.0903964939      -416.6913802736       212.5896008612      -678.9651734264 
   76000       315.1814847835     11521.5603541014         0.7712159734       328.6045393496      -611.8310942045       266.0677871925       286.7748707081        12.9702508159      2323.5139973476     -3093.0130607840      -408.1449394846       324.7480875910       -22.9509525168 
   77000       285.3893345359     11332.4225714015         0.7840875442       277.3554305612      -574.1866573827       280.0652618168       308.0470514078        16.2552847641      2348.3804403816     -3092.9435052262      -433.9911905267       -31.9471585791     -1871.4787733263 
   78000       296.1532255508     11054.2822529315         0.8038162207       281.4209707019      -602.2383168709       280.5097966704       311.7949794371         6.7138574615      2326.7780341641     -3093.1359663581      -434.8990182459      -301.5682561537     -3616.2137290241 
   79000       302.9547498806     11626.0708221192         0.7642832664       326.6724851793      -577.2811285231       270.3742815608       341.9486337294        10.6092391177      2280.6266972690     -3093.3503660687      -387.4896141313       329.0185080202        13.8364087240 
   80000       299.5423348422     11326.3240403103         0.7845097272       336.4906914167      -557.2809894835       261.4000976609       338.3618915963        16.2136057985      2332.4293545803     -3094.3537366684      -411.3322024511       107.3570740207     -1387.1516400331 
   81000       288.9285340565     11096.1925411394         0.8007802091       235.6079928381      -626.4943262873       255.7485537370       319.6098154324         2.3147591366      2316.0568014743     -3092.8421705266      -427.3820855410       261.9237972982       162.6173117116 
   82000       292.2684131671     11132.9503336402         0.7981362637       250.5368631264      -621.5309567629       256.2464669180       316.9037035826        22.7224201227      2307.4810778359     -3094.4032752026      -430.4813500195       273.1052030151       138.9995687553 
   83000       300.5404887283     11010.9085861185         0.8069825768       313.3487629986      -583.4012003437       260.6201165383       351.0080545499        11.7490404450      2325.0631805853     -3093.1181677161      -438.7234247461        43.2155668774     -1682.2049653806 
   84000       299.9285999843     11444.4501009120         0.7764122614       314.7845631985      -580.1396521023       260.6747078893       340.0506885481         8.9733076923      2323.3668262067     -3094.2266023441      -418.9785800946       251.0014374045      -382.1509815564 
   85000       295.6182652766     10943.2249722224         0.8119737469       333.8691526986      -548.1939252975       295.4777264232       338.2893139860        14.7027396178      2307.0390233663     -3093.6188645162      -410.0838641747        53.5783285287     -1756.2553635840 
   86000       297.1654270184     11467.6192261499         0.7748436017       314.0080009392      -572.6714841213       267.3573127829       339.4790425908         7.6782950201      2321.6992801830     -3093.7820539785      -415.1033607195        99.1561143338     -1284.6653724514 
   87000       304.5413865644     11148.7495637247         0.7970052007       269.8873589510      -638.8004467867       252.2911862160       300.2484774886        13.0163133793      2318.2329158987     -3092.5712196640      -430.0181201052       105.7992684157     -1009.1948181342 
   88000       307.5054302009     11007.0309604880         0.8072668657       320.6917139634      -596.8401780859       280.2752507933       312.2717657054        13.7309387860      2312.0659828746     -3093.1979531368      -421.9861631085       558.9228159918      1484.0631527639 
   89000       305.7741438039     11414.8377856281         0.7784264262       311.6276662161      -600.7384293057       241.9415971467       328.1580431050         9.0506818677      2328.7251833596     -3093.2899482220      -415.3239865626       507.2112804147      1174.8619364922 
   90000       319.8400605547     11371.6796312627         0.7813807346       320.3918659189      -633.9439834420       262.1413369872       310.1100099295         7.1799380638      2301.4039453511     -3092.7377275308      -422.0414862429       204.3072769309      -699.9613540775 
   91000       299.8398922601     11392.0749978731         0.7799818194       325.0744027256      -569.5851272784       259.0005611269       350.3966753175         7.9919593948      2323.9635053164     -3093.8237443380      -417.1140840959       665.9372841836      2051.6391893721 
   92000       296.8618013575     11005.7240266619         0.8073627289       269.8680625851      -615.9054670036       252.7106617163       327.4072773632         7.2585797771      2326.1213728864     -3092.1994777257      -437.2038810209       228.7126245785      -256.4086784208 
   93000       289.7635709656     11094.5109430463         0.8009015836       252.9714305984      -611.6224640241       272.8374473921       308.6869441722        11.6382064154      2315.9153302157     -3092.6032404323      -428.0971517873       132.5797677785      -744.0675430537 
   94000       296.7504270102     11353.5031365667         0.7826316932       314.8695228168      -570.5716890121       284.6173431013       340.6444595459        14.4488870526      2312.7186845263     -3094.1400134779      -428.8610497602       361.9994886835       284.6369987848 
   95000       286.6346874166     11438.5506795370         0.7768126953       263.6372383049      -591.6207221821       262.1420407143       318.1956008352        11.7269654739      2313.3164407713     -3092.8121993431      -404.1895706336       112.7183619830      -904.6835069313 
   96000       299.0861906292     11315.9315663471         0.7852302156       322.0585166851      -570.3521252813       267.4243643467       321.2333217807        18.5007201771      2332.0978310836     -3092.6465671023      -416.9617955672       230.7345671911      -553.3736601030 
   97000       278.6421652683     11359.8443129247         0.7821948205       327.6437851560      -503.7661607962       288.2225954977       354.9403664204        16.1876993895      2335.3332827342     -3094.8308614064      -403.6192434315       114.3852274030     -1287.2360648173 
   98000       290.0326565061     11055.2814433019         0.8037435708       280.7240916143      -584.6726979846       271.1764729976       312.1325093469        10.9919523769      2339.1350026377     -3092.4441308754      -425.6645044683       377.9051638579       602.7482996178 
   99000       301.6285807824     11516.2486493306         0.7715716857       388.0823899578      -511.9142125107       270.2036877324       347.9654145765        14.1344094051      2363.1891373723     -3092.5988989587      -414.8079626382       355.6274877228      -193.2383776174 
  100000       289.1627180574     11049.1299775121         0.8041910451       307.5600006340      -555.2410745730       252.6618737830       344.9021676286        12.6422705061      2356.7658114354     -3092.4630204537      -429.7501774725       716.1938284230      2535.8896079509 
  101000       296.0193625239     11697.5345476164         0.7596140321       298.6961271614      -584.5637411352       250.1320200972       315.9534334754         9.6409903259      2332.7736641852     -3091.7038752823      -401.3599739366       393.7329710567       557.0854034225 
  102000       306.0535908647     11240.4724526730         0.7905015933       300.5799293564      -612.6199777512       257.6020005169       316.3110238456        12.4050629083      2303.8992089027     -3092.3222428280      -410.5150310967       431.3485449458       797.7063900526 
  103000       306.4444675375     11458.5899823570         0.7754541700       329.3246776272      -585.0415237242       269.6202381413       307.9511729783        14.5030486682      2333.6573447385     -3092.7401661613      -418.0331620892       539.6032473926      1258.3108619372 
  104000       284.5987070373     11567.1012884717         0.7681796123       255.3766229428      -593.8063978970       263.3245507971       301.1677620480        22.6983054575      2332.3437297584     -3093.7199014124      -419.6208445455       298.0712422945       253.0886783960 
  105000       297.1390096544     11213.8132309710         0.7923808967       288.2544424147      -598.3462187564       255.3056209231       318.3912975556        12.9528863072      2357.0620313418     -3092.9981189903      -449.0599358937       156.9231867372      -803.0431625963 
  106000       308.5050911116     11490.7798877913         0.7732818373       330.3091049237      -590.2055662138       281.8937651178       315.8380737253         9.0940980102      2316.2087532796     -3093.7399514694      -419.5003048773       198.2718284928      -787.9001124547 
  107000       293.9872021076     11555.5993816833         0.7689442226       303.0069265786      -574.1894000417       262.5359026241       316.1422205921         8.1253608521      2357.2710312116     -3093.6231989902      -424.6407163314       628.2829493372      1930.1172168895 
  108000       311.4251026851     11243.5908363087         0.7902823496       379.0355578704      -550.1918171115       264.1381316267       327.1168517029        23.0596890591      2344.4869307908     -3092.8168390487      -416.1765812423       505.7354837107       772.6724693178 
  109000       310.6442587417     11287.5983872776         0.7872012344       328.3162852304      -598.5812147301       261.4370088286       315.6827996376        21.1451113920      2302.9372379271     -3092.8644887836      -406.9188837318      -106.7822855567     -2643.0794526908 
  110000       289.3935933337     11456.4116531948         0.7756016153       291.1158519874      -572.3741067589       289.0181034084       298.4862062825        13.0945815688      2338.8383885484     -3093.7783986644      -418.0329879025      -282.3408169432     -3432.2278257855 
Loop time of 58.5445 on 64 procs for 50000 steps with 1002 atoms

Performance: 73.790 ns/day, 0.325 hours/ns, 854.050 timesteps/s
99.3% CPU use with 64 MPI tasks x no OpenMP threads

MPI task timing breakdown:
Section |  min time  |  avg time  |  max time  |%varavg| %total
---------------------------------------------------------------
Pair    | 6.675      | 9.9461     | 13.338     |  62.6 | 16.99
Bond    | 0.24367    | 0.26379    | 0.28459    |   1.9 |  0.45
Kspace  | 8.0501     | 11.422     | 14.723     |  58.4 | 19.51
Neigh   | 20.214     | 20.346     | 20.482     |   1.5 | 34.75
Comm    | 14.807     | 14.979     | 15.14      |   2.1 | 25.59
Output  | 0.027406   | 0.027467   | 0.027805   |   0.0 |  0.05
Modify  | 1.0098     | 1.0713     | 1.1335     |   2.7 |  1.83
Other   |            | 0.4892     |            |       |  0.84

Nlocal:    15.6562 ave 26 max 9 min
Histogram: 3 9 15 7 13 7 2 6 1 1
Nghost:    4635.27 ave 4719 max 4532 min
Histogram: 1 1 8 5 11 8 11 13 3 3
Neighs:    11738.9 ave 19755 max 4990 min
Histogram: 2 6 12 9 10 6 9 4 1 5

Total # of neighbors = 751290
Ave neighs/atom = 749.79
Ave special neighs/atom = 5
Neighbor list builds = 50000
Dangerous builds not checked
unfix anneal
undump anneal

# RETURN TO LESS FREQUENT NEIGHBOR BUILDS
neigh_modify every 1 delay 10 check yes one 10000 # More relaxed rebuild criteria can be used

#===========================================================
# RUN EQUILIBRIUM SIM
#===========================================================

# UPDATE RUN PARAMETERS AND CREATE FIX
fix equil all npt temp ${FINAL_TEMP} ${FINAL_TEMP} 100.0 iso ${pressure} ${pressure} 1000.0 # NPT, nose-hoover 100 fs T relaxation
fix equil all npt temp 298.0 ${FINAL_TEMP} 100.0 iso ${pressure} ${pressure} 1000.0 
fix equil all npt temp 298.0 298.0 100.0 iso ${pressure} ${pressure} 1000.0 
fix equil all npt temp 298.0 298.0 100.0 iso 1.0 ${pressure} 1000.0 
fix equil all npt temp 298.0 298.0 100.0 iso 1.0 1.0 1000.0 

# CREATE COORDINATE DUMPS FOR EQUILIBRIUM
dump equil all custom ${coords_freq} equil.lammpstrj id type x y z mol
dump equil all custom 1000 equil.lammpstrj id type x y z mol
dump_modify equil sort id format float %20.10g

# RUN EQUIL
run		${nSteps_equil}
run		100000
PPPM initialization ...
WARNING: Using 12-bit tables for long-range coulomb (../kspace.cpp:321)
  G vector (1/distance) = 0.186001
  grid = 8 8 8
  stencil order = 5
  estimated absolute RMS force accuracy = 0.00747839
  estimated relative force accuracy = 2.2521e-05
  using double precision FFTs
  3d grid and FFT values/proc = 343 8
Per MPI rank memory allocation (min/avg/max) = 11.04 | 11.05 | 11.05 Mbytes
Step Temp Volume Density TotEng PotEng E_bond E_angle E_dihed E_coul E_long E_vdwl Enthalpy Press 
  110000       289.3935933337     11456.4116531948         0.7756016153       291.1152766446      -572.3746821017       289.0181034084       298.4862062825        13.0945815688      2339.9442194029     -3094.8848048618      -418.0329879025      -282.3437920080     -3432.2421884969 
  111000       298.6916499566     11408.4525715633         0.7788621049       292.3311854592      -598.9022296544       263.1967710417       303.1004646009         8.7054877989      2340.6237391863     -3095.3254845130      -419.2032077693       364.0622744563       431.1265746078 
  112000       308.7763566257     12125.5296797801         0.7328019161       397.9283055785      -523.3957651208       287.2189475636       321.7746200566        10.9361047358      2342.5670896113     -3094.5270651898      -391.3654618983       351.7280762758      -261.2567516294 
  113000       300.4167747733     11389.3977990792         0.7801651624       341.4002932148      -554.9805335594       277.1120368508       335.1287911016        12.2408167449      2329.5860557385     -3093.7506518297      -415.2975821656       633.3551589245      1757.6769857726 
  114000       317.8985216780     11230.0299425188         0.7912366600       383.8601255986      -564.6825778076       254.2581103747       323.4015103598        17.9194349866      2369.8377394771     -3094.4311071840      -435.6682658218        73.4689110083     -1895.1893915975 
  115000       311.6083100720     11280.2581519263         0.7877134782       364.3159634701      -565.4580640383       268.5868032625       336.6971892938        16.7669465883      2324.8743468002     -3094.6760082633      -417.7073417197       485.6833201726       737.7461729818 
  116000       303.0734952569     11180.9720644177         0.7947083073       317.1105314116      -587.1973936593       272.6728980322       310.8499445192         9.0085849458      2335.0847867758     -3093.5561972737      -421.2574106586       430.1329430741       693.1210973894 
  117000       305.1034807447     11636.2374503729         0.7636155090       330.7986412870      -579.5663359286       262.5654093854       307.9862953234        12.4972394857      2339.3000928661     -3093.2954332147      -408.6199397745       217.3328186757      -668.6157485452 
  118000       305.3231488142     11324.4506424400         0.7846395083       398.0989078630      -512.9215129306       286.3820109494       331.8297059143         6.1518856435      2384.3947831689     -3092.8594034808      -428.8204951259       616.2772521054      1321.0480335317 
  119000       297.6320908104     11418.5621306562         0.7781725301       276.4503725860      -611.6215396316       255.7220975936       309.7958738867        11.6658942532      2316.7168763694     -3094.8213142765      -410.7009674579       430.1089229323       922.7189139829 
  120000       308.0428486255     11334.5480675735         0.7839405092       362.1953931087      -556.9400431238       277.2103358069       342.8233539844        13.0332256335      2318.1200588589     -3093.8598737623      -414.2671436451       496.7204336117       813.8100213708 
  121000       298.9502798163     11346.9743950849         0.7830819983       292.8841542817      -599.1209582436       271.1950695006       319.7710190931        11.1963461729      2305.1892479802     -3094.2520544086      -412.2205865819       497.7471379884      1237.9626141596 
  122000       298.9909977216     11454.0260543516         0.7757631545       306.8970631636      -585.2295430753       265.4795729137       317.5897537973        15.3661873984      2310.2088728256     -3094.2807198759      -399.5932101344       324.1217937553       103.1141774841 
  123000       300.0929167542     11243.7536802405         0.7902709039       295.3860792250      -600.0284229521       267.1261277249       318.7963361621        11.7577122102      2311.4195001015     -3094.0858660020      -415.0422331488       259.2472150655      -220.3876664135 
  124000       306.7628046222     11383.6657002835         0.7805580046       316.1209027246      -599.1951499104       268.0043526279       318.7784574823        11.6370437336      2311.0821750247     -3093.6791581792      -415.0180205997       687.2919077124      2235.7128341652 
  125000       308.3225223689     11400.2136933177         0.7794249847       304.7934363296      -615.1764878623       274.1788684449       296.6566413239        14.5199252284      2317.7944875358     -3095.4622707607      -422.8641396346      -111.7654311196     -2505.4601662360 
  126000       307.3393412329     11450.6105202900         0.7759945522       343.9984400807      -573.0378772238       275.3477557807       330.6646798132        11.8564039246      2303.9595964276     -3093.4695402340      -401.3967729359       -28.2636965256     -2229.1758702628 
  127000       299.4884348342     11176.9353487867         0.7949953280       282.1950011541      -611.4158533950       256.5145748705       309.5926085714         7.7959930340      2313.5615445533     -3093.6087104586      -405.2718639655       557.8792576711      1691.2715265799 
  128000       312.5300847156     11524.8467014025         0.7709960587       342.5549545550      -589.9694557101       261.2754600925       322.7402770774         5.4413438224      2336.9060194972     -3093.4953910304      -422.8371651692       417.4164930294       445.3974244207 
  129000       308.7421638839     11434.4604304891         0.7770905709       322.1398182029      -599.0822285059       274.2101063004       312.0006473677         3.4965233625      2329.7898349117     -3093.7617589705      -424.8175814778       285.0311091477      -222.5278033959 
  130000       298.7933460993     11340.8105692359         0.7835076099       311.6633842191      -579.8734709156       284.2973120292       298.8751732341        14.5389762797      2331.7848163127     -3095.4646680038      -413.9050807677       651.8084417982      2056.5732339757 
  131000       309.3272093422     11353.7938410452         0.7826116546       330.7122717847      -592.2554282152       254.3050144543       321.8078919216        17.5820422116      2314.3580487215     -3095.8124163628      -404.4960091614       175.3655370821      -938.1779802518 
  132000       303.0233568412     11282.3838138560         0.7875650687       292.8413349105      -611.3169876139       257.3764911198       311.7811113774         9.8960132839      2320.7547020750     -3094.1707183488      -416.9545871212       297.1995576245        26.4869932313 
  133000       291.0704729003     11867.5415088231         0.7487322776       296.4832097161      -572.0102069542       253.1674273984       317.8731947600        15.1535345081      2333.2483791922     -3092.8716684499      -398.5810743630       567.6945380454      1567.0078676160 
  134000       306.2141647456     11552.6265314506         0.7691420959       325.8937122774      -587.7853137085       277.7726692914       307.1476278368        10.8524886628      2327.8044599405     -3093.6342715793      -417.7282878607      -362.0054329757     -4082.8943912841 
  135000       298.7602384000     11298.0330090961         0.7864741921       329.2166686454      -562.2214000389       275.3593981026       312.3417107192        19.4176214129      2338.9365920688     -3094.2165148754      -414.0602074669       323.9055080813       -32.2337402800 
  136000       301.4927888727     11079.8464338168         0.8019616009       261.2287296608      -638.3626981485       259.1358053275       301.8936271946        11.6190776616      2315.1813367307     -3094.3199883878      -431.8725566752       244.1899805616      -105.4455065143 
  137000       299.1184980032     11623.4917586209         0.7644528484       339.0877748281      -553.4192655857       273.9457103617       309.9896006312         6.0616860227      2357.8518817437     -3094.7463009110      -406.5218434340       525.5637928713      1100.0450861295 
  138000       299.9887025251     11289.2824570557         0.7870838043       301.1254023004      -593.9781464123       263.5715121636       320.9358519950        10.2223179936      2320.3029873671     -3094.1251546342      -414.8856612975       270.3145935478      -187.1375199508 
  139000       308.3327378196     11378.7179525655         0.7808974105       375.8657846616      -544.1346202986       292.5463017563       329.7624530660         9.0419423851      2337.1035750720     -3093.0070406454      -419.5818519326       347.6687923235      -169.9157216530 
  140000       296.8696888008     10952.2103721987         0.8113075883       275.5208662265      -610.2761978432       255.6154049076       334.8732683510         7.7513978811      2316.7677130642     -3094.1181150109      -431.1658670363       585.4473131002      1940.3540022074 
  141000       301.4319765390     11607.2894715192         0.7655199265       297.3511286470      -602.0588478769       265.6184298551       298.8820845642         8.8812668514      2339.6028118332     -3092.8418182016      -422.2016227793       678.9357254854      2254.1568432339 
  142000       285.6086802994     11135.9710472176         0.7979197634       260.5828072693      -591.6137625590       269.3231523576       304.5296539197        12.9186189399      2331.7413169468     -3093.4217391634      -416.7047655595       683.9647435503      2606.9238315482 
  143000       292.1433891440     11343.0386674488         0.7833537065       321.8508639203      -549.8439104317       259.9332310135       327.9999182101        15.2225089889      2357.5832612577     -3094.9649922669      -415.6178376349       -34.7901247614     -2155.8867984923 
  144000       292.9256539581     11241.6414287292         0.7904193920       277.1333040434      -596.8955849109       247.2707489045       312.4335134243        13.9172243809      2334.4097678065     -3094.8668145269      -410.0600249003       871.2021616713      3623.5242181189 
  145000       287.2479008308     11312.3586560718         0.7854782237       275.0659396399      -582.0217214275       274.0725579776       306.4860991659        15.2138718782      2330.1928943179     -3095.2169062075      -412.7702385597       182.0829686627      -563.6043848801 
  146000       307.6280191591     11371.6811277216         0.7813806317       343.7147262436      -574.1829456185       274.8620888027       319.3370002148        10.5319909946      2332.0396356198     -3094.5759043547      -416.3777568957        15.4114683014     -1979.5871677718 
  147000       289.0697059755     11297.8405929149         0.7864875868       249.7946717858      -612.7288748213       253.9507702257       309.2413899450         6.7872421532      2314.6613913163     -3094.4834272407      -402.8862412209      -158.6422766476     -2478.8696522305 
  148000       308.3610684466     11489.8232210387         0.7733462224       318.2793625587      -601.8055750674       252.3915455128       306.0327884250         3.6274840327      2346.9444866364     -3094.8203556500      -415.9815240243       219.3265467897      -590.5258598447 
  149000       303.3755472234     11358.0231248644         0.7823202406       358.5522593676      -546.6569256001       272.2017357363       338.4482368322        15.1071652458      2338.2458456835     -3095.3409608115      -415.3189482864       327.0339632446      -190.2760352656 
  150000       303.6557812282     11249.0800872331         0.7898967129       270.1806306189      -635.8647140110       243.2233772765       309.1684163390        15.1732149965      2323.5149786573     -3093.1924368193      -433.7522644612      -129.7133819154     -2437.5414162609 
  151000       306.7297407096     11729.8028839638         0.7575243567       335.9328567874      -579.2845400473       266.9339403520       296.4513002310         5.2799239332      2353.4833661396     -3092.1049939425      -409.3280767606       431.1032757542       556.3337123389 
  152000       299.6554881454     11524.7773159142         0.7710007005       354.5828746348      -539.5264320574       282.7272432881       312.7219464978         9.9225314859      2353.9922006038     -3092.4084445913      -406.4819093417       909.6315530641      3302.3465082653 
  153000       300.5788154852     11342.0821971710         0.7834197662       316.4289718651      -580.4353505044       282.9588903966       329.6345690671         9.0338705140      2296.9059431610     -3093.7456881316      -405.2229355115       400.4097186240       507.7045462794 
  154000       288.5465480281     11238.4955936908         0.7906406431       274.2182587120      -586.7442939932       268.0752449104       316.8546731866        11.9914828930      2329.0466776590     -3093.6115583815      -419.1008142608       111.7261953561      -991.3981049784 
  155000       300.9301411214     11256.8466944438         0.7893517274       349.8721705441      -548.0404340475       263.5253677020       332.6626316139        12.3685320165      2362.5314331662     -3094.0795615768      -425.0488369693       272.6305002577      -470.4993367379 
  156000       291.4397505528     11262.3197078206         0.7889681357       329.8504841266      -539.7447798280       264.6627729952       323.4066429734        13.7230933809      2365.9046366438     -3093.6479743227      -413.7939514986       103.4865533935     -1378.1722013060 
  157000       303.6328566810     11312.7142093698         0.7854535365       327.2034052029      -578.7735373726       272.9458365651       289.8448069964         9.2805252091      2376.0420927593     -3094.7252656605      -432.1615332421       384.1660655499       345.2610277152 
  158000       303.5145166875     11244.4814245674         0.7902197574       331.8191469671      -573.8046938175       264.1523017846       324.0933792671         9.7660060973      2344.8577867664     -3094.0300243673      -422.6441433655       338.3307538585        39.7075282345 
  159000       310.8885308166     11334.5974515018         0.7839370936       366.8741070207      -560.7522497241       271.4896480749       324.7638090364        14.0773334454      2348.4231209829     -3094.5313690595      -424.9747922042      -115.1723643586     -2916.1302499054 
  160000       291.3232424266     11250.8054059792         0.7897755817       297.4998390902      -571.7477889824       267.0190896679       329.0172395755        19.4181703576      2358.2095922242     -3094.7453771796      -450.6665036281       171.2999378454      -769.1295768850 
  161000       311.9973210082     11272.0170138366         0.7882893871       367.8865349714      -563.0482198130       267.4280272725       326.5545518502         7.5782821792      2317.1774269498     -3093.5881796679      -388.1983283968       449.5223008287       496.5956904852 
  162000       299.7948790151     11380.1468317519         0.7807993618       330.3427352051      -564.1824846899       253.4581342500       346.8434839948        17.5459282226      2319.8212060772     -3094.7429486238      -407.1082886106       195.5173232808      -812.3590085479 
  163000       288.3883152913     11127.5093341373         0.7985265271       258.4031651800      -602.0872541314       247.5237158385       336.7496900449        16.4042924329      2310.7403120635     -3094.8640146610      -418.6412498501       441.8847127639      1130.6248794580 
  164000       296.1510266499     11447.5492106145         0.7762020691       312.1448015141      -571.5079249982       258.4137390955       315.6236874765        14.5504794150      2363.7185141650     -3093.5093195690      -430.3050255811       319.6540577238        44.9788672368 
  165000       292.4546116414     11126.3395298076         0.7986104828       309.7991325696      -562.8242646256       269.8290264181       325.4839370486        16.4457119410      2337.0918462382     -3094.3594632008      -417.3153230707       192.8057383606      -720.9964773130 
  166000       290.5561156693     11367.4650789858         0.7816704359       291.3420475203      -575.6166347454       270.0480845771       329.1365514391        10.9849243668      2311.1345623580     -3094.5618044065      -402.3589530799       284.0058670079       -44.2517541415 
  167000       302.2293600703     11594.8383089001         0.7663419831       314.3219685122      -587.4672337043       273.6306280897       296.8048236280        10.3758493842      2331.2432099451     -3094.5619254668      -404.9598192843       123.8910932739     -1126.1513903244 
  168000       295.2611754379     11190.8570979842         0.7940063309       318.3743285351      -562.6232680642       257.0832671770       328.5650969454        13.3309645318      2355.0372132971     -3094.1243853160      -422.5154246995       512.1043405502      1187.0189875089 
  169000       303.3860045435     10936.9139501126         0.8124422871       260.6999948845      -644.5403925393       249.4988926204       313.4911705625        14.7315676229      2310.7311907178     -3095.3199975128      -437.6732165501       510.8699733243      1568.4277100878 
  170000       300.1688325880     11286.6048273274         0.7872705317       347.1255107670      -548.5155083809       279.5989165031       319.0643509351         5.2375063748      2369.1157354350     -3093.7418955782      -427.7901220508       261.6352566283      -519.3706445754 
  171000       307.9759680565     11163.8253431923         0.7959289142       342.0639611155      -576.8719174866       266.6967317165       344.0486495786         5.4201016184      2347.3385063498     -3094.1443918620      -446.2315148879       133.8194555047     -1279.0414793527 
  172000       286.9417453804     11308.6491925416         0.7857358763       262.6676668889      -593.5064903440       275.1519634557       315.8179878867        11.5463068800      2309.3087785162     -3092.9850897111      -412.3464373715        38.3217153522     -1360.2903447285 
  173000       308.6427207108     11511.7273368171         0.7718747260       325.5260514004      -595.3992776775       253.3536856606       312.1888075265         7.8040767325      2333.4487580456     -3094.1368183374      -408.0577873054        26.8275260346     -1779.1669180405 
  174000       304.4635072836     11370.6437755479         0.7814519177       289.1414274694      -619.3140027822       261.5124720896       300.5322018326        15.3020512455      2318.3944704869     -3092.5334621448      -422.5217362919       283.7482341792       -32.5225838571 
  175000       298.3328064690     11010.0051399906         0.8070487952       330.9392256544      -559.2234755407       269.0947238015       335.1815091115        15.6025644190      2341.7055937882     -3094.7843036914      -426.0235629696       301.3271741074      -184.4187549109 
  176000       291.6490882438     11051.9878091467         0.8039830967       319.1959349281      -551.0239489156       290.6114994120       318.8994521477        12.8793073054      2350.2670431088     -3092.4178435046      -431.2634073850       377.7329134500       363.1733861319 
  177000       305.9486764234     11204.8916809901         0.7930118056       323.0601139991      -589.8267503575       251.1165159457       339.6004187383        10.6100452871      2335.7274993981     -3094.6969748084      -432.1842549183        82.9931847927     -1469.0912949672 
  178000       301.4880492347     11382.4852413553         0.7806389550       337.9188317792      -561.6584539415       267.4349319532       319.5165002125        11.4467129508      2343.5348324133     -3094.7316110157      -408.8598204556       442.8911511925       632.3562392937 
  179000       294.4138018044     11404.8448802968         0.7791084821       323.3539230788      -555.1152878176       268.3906748618       322.0022802780         7.3708313969      2337.1214099199     -3093.4329008538      -396.5675834206       740.4058097887      2507.4069086078 
  180000       299.1677049756     10862.1396850972         0.8180350871       281.4898783378      -611.1639853904       269.7282236353       298.3009427687         8.7251502236      2334.9148621078     -3095.5091150974      -427.3240490284      -256.5812600285     -3396.6314358529 
  181000       308.1502296578     11546.8815844334         0.7695247690       350.2626730255      -569.1931657498       270.7408538202       311.9817433188         8.8581111229      2356.0151195439     -3092.6975827581      -424.0914107975       153.4978698809     -1168.4410704967 
  182000       287.5000299016     11299.4966248055         0.7863723207       292.7701095986      -565.0698518859       263.6765853868       326.2179724902         8.2078018137      2358.3483405410     -3095.3517279376      -426.1688241801       427.2019795876       815.7691051826 
  183000       298.0382930168     11454.5344383176         0.7757287240       305.8356886932      -583.4482459553       271.9025845319       313.0114463109        10.3543625288      2338.4068954311     -3093.5447810624      -423.5787536956       470.0157824489       982.8045708890 
  184000       288.9935099364     11549.3047718338         0.7693633131       258.4981782394      -603.7980153228       249.0229295329       305.2454001009        11.0586345538      2326.7516748626     -3095.1758943860      -400.7007599870       426.8862003913       999.7224951672 
  185000       299.6717682760     11378.8232895400         0.7808901815       298.7952001550      -595.3626830419       257.9772337458       299.4533266797        14.8689273854      2317.9928370314     -3094.8115965885      -390.8434112957       555.3641646020      1546.0761436109 
  186000       292.7981547688     11382.4628853678         0.7806404882       287.7175046911      -585.9309533476       262.0057624764       324.4302969319        17.5489645777      2309.4441809869     -3094.7023727087      -404.6577856118      -180.9363168821     -2823.1895023595 
  187000       293.8197023840     11497.5197540087         0.7728285381       319.0299060519      -557.6666364240       260.3315632128       332.2804562961        15.4413935891      2319.6599165806     -3094.4059544784      -390.9740116242       474.0297634429       924.3814991335 
  188000       289.8263776523     10806.0201072683         0.8222834397       225.0418949514      -639.7394016890       238.5646079582       309.3376922351        14.5028752765      2348.5684555966     -3094.6258797988      -456.0871529566       197.6508951721      -173.8065838753 
  189000       302.0811516066     11495.0870411154         0.7729920923       337.2261292901      -564.1208498670       244.7305859771       322.2231562701        14.6976063369      2359.1801328171     -3095.6187404502      -409.3335908180       385.4156956313       287.4516888594 
  190000       289.6832899040     11371.1935813995         0.7814141339       281.0515115389      -583.3028411859       269.7042877833       310.7737676272        17.3390411569      2330.3946372720     -3094.5708701405      -416.9437048847      -212.9429158174     -2978.7915103354 
  191000       300.3174415647     11251.1444626374         0.7897517815       290.4043395511      -605.6800977033       273.2795559899       308.5985619686         8.9559759357      2317.8802052403     -3095.3421167936      -419.0522800442       324.4951192840       207.7611517795 
  192000       292.7272502542     11075.1633913421         0.8023007038       258.3700388871      -615.0668549091       255.6168556225       292.2356947461        19.4279521158      2332.2629980540     -3095.5057631287      -419.1045923187       685.4457627143      2644.1059542924 
  193000       295.2992111335     11124.9581195159         0.7987096480       311.7524269409      -569.3586602192       271.1505116672       307.5391468962        15.8373951196      2345.4711452902     -3094.9771174462      -414.3797417463       556.4105515711      1507.9445371875 
  194000       309.2101384643     11073.8821367060         0.8023935305       358.4759669374      -564.1424180471       259.2285610269       333.5236344803        14.1391497973      2330.5699345118     -3093.3018389884      -408.3018588749       772.6167016817      2564.3196683689 
  195000       293.3002396474     11121.1470972145         0.7989833518       249.0756078824      -626.0709664278       249.4334043584       303.0156881544         7.3166161856      2341.3375743163     -3093.3284154619      -433.8458339806       171.1971621145      -480.1664380744 
  196000       288.2027763267     11275.7635344285         0.7880274676       318.0826947696      -541.8541150750       279.7009942557       335.8396636130        20.1553905267      2347.2233143816     -3093.2797881542      -431.4936896978       459.4055563089       859.3905494227 
  197000       297.5154602785     11662.2998740726         0.7619090128       327.9320981313      -559.7918129713       273.9895690824       322.4253225357        12.9895941459      2337.4886259792     -3093.4911262457      -413.1937984688       351.1171668617       136.3164583039 
  198000       302.2317954655     11397.9157400116         0.7795821259       317.2115477492      -584.5849211772       250.0426668995       326.8973308057         5.4633503277      2341.4188603434     -3093.2330677752      -415.1740617783       355.5272815451       230.5025932699 
  199000       288.2888737675     11444.2620047115         0.7764250224       246.4628565552      -613.7308500464       238.4566317551       309.4041132405        19.9078864879      2321.4861849894     -3094.4303126677      -408.5553538515       191.3447715579      -330.2405803488 
  200000       304.0987965105     11653.2910010652         0.7624980259       353.7025011204      -553.6647084597       267.4582403292       345.7759115791         8.4944578143      2321.6771562718     -3095.1820265217      -401.8884479324      1013.0712908230      3879.7514630194 
  201000       304.6991538427     11305.1649981557         0.7859780361       329.3343259399      -579.8242243609       255.8408059822       327.6680539774         8.9078098615      2345.2243095668     -3092.9728220155      -424.4923817333       -31.9163249179     -2191.0679367421 
  202000       302.3146008445     11509.7377640183         0.7720081522       321.9921338095      -580.0514090501       281.3192257651       296.2548859481        12.3588519292      2342.5403182850     -3093.7419391144      -418.7827518630       408.7899019576       517.0913108083 
  203000       289.0846156286     11383.7786422566         0.7805502604       299.1680525897      -563.3999813039       267.1139684425       321.9129433451        10.0211847127      2354.1151638150     -3093.0332812202      -423.5299603991       222.4414968314      -462.1504407359 
  204000       297.8625952652     11502.4117898143         0.7724998501       344.3948745668      -544.3648147363       263.8619479854       336.5218290596        16.5133900562      2329.5888017299     -3093.9863429773      -396.8644405901       272.5857086956      -428.0702844097 
  205000       302.0085316061     11503.4405137681         0.7724307674       301.6143162234      -599.5159800401       267.0590681770       301.3534659096        17.2455243551      2327.2847744786     -3094.7112307810      -417.7475821793       264.2379327705      -222.7889446404 
  206000       304.8072995357     11406.9329576307         0.7789658637       331.1368317501      -578.3444026810       267.6428719575       332.6261567362        11.5411010290      2320.1697189699     -3093.4778789136      -416.8463724599       207.0153229201      -746.1089812217 
  207000       294.7737529576     11398.7844205382         0.7795227154       283.5864900680      -595.9567397895       263.1486386548       309.9608618482        11.3255172775      2310.8138097579     -3094.5696941510      -396.6358731769       297.8113349357        85.5683404662 
  208000       290.6778788009     11374.2296978113         0.7812055515       293.6913250824      -573.6306729026       285.0376512922       309.5462641835        11.0948206351      2334.8843412992     -3094.9154754592      -419.2782748536      -181.0806046967     -2862.1154641975 
  209000       307.8108515994     11652.3232300013         0.7625613543       320.9475910881      -597.4956145383       258.7355784154       287.0077375924         4.6643035232      2357.0693843918     -3095.4003441925      -409.5722742686       -37.7456848441     -2110.7404005500 
  210000       293.0128651134     11324.3323775758         0.7846477026       255.5319914607      -618.7571173417       269.0602399668       283.6724491863        13.0425839863      2343.1015522383     -3094.4791200501      -433.1548226693       365.7541215706       667.3909337492 
Loop time of 58.4477 on 64 procs for 100000 steps with 1002 atoms

Performance: 147.825 ns/day, 0.162 hours/ns, 1710.933 timesteps/s
99.3% CPU use with 64 MPI tasks x no OpenMP threads

MPI task timing breakdown:
Section |  min time  |  avg time  |  max time  |%varavg| %total
---------------------------------------------------------------
Pair    | 11.779     | 18.065     | 24.695     |  91.7 | 30.91
Bond    | 0.46299    | 0.49476    | 0.54035    |   2.3 |  0.85
Kspace  | 16.137     | 22.75      | 29.061     |  81.7 | 38.92
Neigh   | 1.5503     | 1.5624     | 1.5746     |   0.5 |  2.67
Comm    | 12.563     | 12.704     | 12.828     |   2.4 | 21.74
Output  | 0.04669    | 0.046754   | 0.047314   |   0.0 |  0.08
Modify  | 1.9948     | 2.0888     | 2.1608     |   2.6 |  3.57
Other   |            | 0.7366     |            |       |  1.26

Nlocal:    15.6562 ave 24 max 8 min
Histogram: 2 3 9 11 8 13 8 4 4 2
Nghost:    4704.8 ave 4808 max 4578 min
Histogram: 2 3 3 10 7 12 8 8 6 5
Neighs:    11874.6 ave 22320 max 5408 min
Histogram: 4 9 15 8 11 8 3 2 3 1

Total # of neighbors = 759976
Ave neighs/atom = 758.459
Ave special neighs/atom = 5
Neighbor list builds = 3831
Dangerous builds = 0
unfix equil
undump equil

# WRITE RESTART FILES, CLEANUP, AND EXIT
write_restart   md-11.end.restart
PPPM initialization ...
WARNING: Using 12-bit tables for long-range coulomb (../kspace.cpp:321)
  G vector (1/distance) = 0.186238
  grid = 8 8 8
  stencil order = 5
  estimated absolute RMS force accuracy = 0.00739281
  estimated relative force accuracy = 2.22632e-05
  using double precision FFTs
  3d grid and FFT values/proc = 343 8
write_data      md-11.end.data pair ii
PPPM initialization ...
WARNING: Using 12-bit tables for long-range coulomb (../kspace.cpp:321)
  G vector (1/distance) = 0.186238
  grid = 8 8 8
  stencil order = 5
  estimated absolute RMS force accuracy = 0.00739281
  estimated relative force accuracy = 2.22632e-05
  using double precision FFTs
  3d grid and FFT values/proc = 343 8
unfix		averages
Total wall time: 0:03:12
