
#===========================================================
# GENERAL PROCEDURES
#===========================================================
units		real	# g/mol, angstroms, fs, kcal/mol, K, atm, charge*angstrom
dimension	3	# 3 dimensional simulation
newton		on	# use Newton's 3rd law
boundary	p p p	# periodic boundary conditions
atom_style	full    # molecular + charge

#===========================================================
# FORCE FIELD DEFINITION
#===========================================================
special_bonds  lj   0.0 0.0 0.0  coul 0.0 0.0 0.0     # NO     1-4 LJ/COUL interactions
pair_style     hybrid lj/cut/coul/long 14.0 14.0 # outer_LJ outer_Coul (cutoff values, see LAMMPS Doc)
kspace_style   pppm 0.0001          # long-range electrostatics sum method
bond_style     harmonic             # parameters needed: k_bond, r0
angle_style    harmonic             # parameters needed: k_theta, theta0
dihedral_style hybrid opls            # parameters needed: V1, V2, V3, V4
pair_modify    shift yes mix arithmetic       # using Lorenz-Berthelot mixing rules

#===========================================================
# SETUP SIMULATIONS
#===========================================================

# READ IN COEFFICIENTS/COORDINATES/TOPOLOGY
read_data ${data_name}
read_data charges.data
  orthogonal box = (-21.9842 -21.9842 -21.9842) to (21.9842 21.9842 21.9842)
  2 by 3 by 4 MPI processor grid
  reading atoms ...
  1002 atoms
  scanning bonds ...
  1 = max bonds/atom
  scanning angles ...
  6 = max angles/atom
  scanning dihedrals ...
  3 = max dihedrals/atom
  reading bonds ...
  835 bonds
  reading angles ...
  1169 angles
  reading dihedrals ...
  501 dihedrals
  4 = max # of 1-2 neighbors
  3 = max # of 1-3 neighbors
  4 = max # of 1-4 neighbors
  5 = max # of special neighbors
include ${settings_name}
include charges.in.settings
     # Non-bonded interactions (pair-wise)
     pair_coeff           1          1          lj/cut/coul/long      0.044000             2.571134
     pair_coeff           1          2          lj/cut/coul/long      0.044000             2.571134
     pair_coeff           1          3          lj/cut/coul/long      0.067971             3.000992
     pair_coeff           1          4          lj/cut/coul/long      0.051381             2.844640
     pair_coeff           2          2          lj/cut/coul/long      0.044000             2.571134
     pair_coeff           2          3          lj/cut/coul/long      0.067971             3.000992
     pair_coeff           2          4          lj/cut/coul/long      0.051381             2.844640
     pair_coeff           3          3          lj/cut/coul/long      0.105000             3.430851
     pair_coeff           3          4          lj/cut/coul/long      0.079373             3.274498
     pair_coeff           4          4          lj/cut/coul/long      0.060000             3.118146

     # Stretching interactions
     bond_coeff           1           366.682029           1.096103
     bond_coeff           2           612.219900           0.957501
     bond_coeff           3           366.799608           1.411526

     # Bending interactions
     angle_coeff          1           41.034712            108.205056
     angle_coeff          2           61.311509            112.230334
     angle_coeff          3           49.909498            108.734074

     # Dihedral interactions
     dihedral_coeff       1          opls                  0.105716            -0.206212             0.372643            -0.071123

# SET RUN PARAMETERS
timestep	1.0		# fs
run_style	verlet 		# Velocity-Verlet integrator
neigh_modify every 1 delay 0 check no one 10000 # More relaxed rebuild criteria can be used

#===========================================================
# RUN CONSTRAINED RELAXATION
#===========================================================

# SET OUTPUTS
thermo_style    custom step temp vol density etotal pe ebond eangle edihed ecoul elong evdwl enthalpy press
thermo_modify   format float %20.10f
thermo ${thermo_freq}
thermo 1000

# DECLARE RELEVANT OUTPUT VARIABLES
variable        my_step equal   step
variable        my_temp equal   temp
variable        my_rho  equal   density
variable        my_pe   equal   pe
variable        my_ebon equal   ebond
variable        my_eang equal   eangle
variable        my_edih equal   edihed
variable        my_evdw equal   evdwl
variable        my_eel  equal   (ecoul+elong)
variable        my_ent  equal   enthalpy
variable        my_P    equal   press
variable        my_vol  equal   vol

fix  averages all ave/time ${dump4avg} $(v_avg_freq/v_dump4avg) ${avg_freq} v_my_temp v_my_rho v_my_vol v_my_pe v_my_edih v_my_evdw v_my_eel v_my_ent v_my_P file thermo.avg
fix  averages all ave/time 100 $(v_avg_freq/v_dump4avg) ${avg_freq} v_my_temp v_my_rho v_my_vol v_my_pe v_my_edih v_my_evdw v_my_eel v_my_ent v_my_P file thermo.avg
fix  averages all ave/time 100 10 ${avg_freq} v_my_temp v_my_rho v_my_vol v_my_pe v_my_edih v_my_evdw v_my_eel v_my_ent v_my_P file thermo.avg
fix  averages all ave/time 100 10 1000 v_my_temp v_my_rho v_my_vol v_my_pe v_my_edih v_my_evdw v_my_eel v_my_ent v_my_P file thermo.avg

# INITIALIZE VELOCITIES AND CREATE THE CONSTRAINED RELAXATION FIX
velocity        all create ${ANNEAL_TEMP} ${vseed} mom yes rot yes     # DRAW VELOCITIES
velocity        all create 400.0 ${vseed} mom yes rot yes     
velocity        all create 400.0 31748 mom yes rot yes     

fix relax all nve/limit 0.01
run             10000
PPPM initialization ...
WARNING: Using 12-bit tables for long-range coulomb (../kspace.cpp:321)
  G vector (1/distance) = 0.157261
  grid = 10 10 10
  stencil order = 5
  estimated absolute RMS force accuracy = 0.019352
  estimated relative force accuracy = 5.82781e-05
  using double precision FFTs
  3d grid and FFT values/proc = 720 60
Neighbor list info ...
  update every 1 steps, delay 0 steps, check no
  max neighbors/atom: 10000, page size: 100000
  master list distance cutoff = 16
  ghost atom cutoff = 16
  binsize = 8, bins = 6 6 6
  1 neighbor lists, perpetual/occasional/extra = 1 0 0
  (1) pair lj/cut/coul/long, perpetual
      attributes: half, newton on
      pair build: half/bin/newton
      stencil: half/bin/3d/newton
      bin: standard
Per MPI rank memory allocation (min/avg/max) = 8.442 | 8.729 | 9.295 Mbytes
Step Temp Volume Density TotEng PotEng E_bond E_angle E_dihed E_coul E_long E_vdwl Enthalpy Press 
       0       400.0000000000     85000.7203524213         0.1045357186      1357.3783840916       163.8620400716       175.0989444444        91.8424623491       -43.6060096652      2647.8172156996     -2655.8362903303       -51.4542824261     -1562.8576557957     -2355.6971735151 
    1000        44.0854031761     85000.7203524213         0.1045357186      -313.1858490323      -444.7274720908         2.0448845217        13.8090837365       -36.3804332514      2378.5748224989     -2663.7635361439      -139.0122934528      -379.9987041015       -53.8966205784 
    2000        36.8807231653     85000.7203524213         0.1045357186      -567.8002740268      -677.8446387195         1.7547671696        13.8912888774       -35.3488149168      2220.3682974086     -2665.6337088598      -212.8764683986      -589.7786067247       -17.7294901878 
    3000        31.4577978241     85000.7203524213         0.1045357186      -688.8250972287      -782.6885868536         1.7534656779        13.8933105965       -35.1434426850      2175.9858029843     -2664.2529269908      -274.9247964365      -723.8325140936       -28.2397970007 
    4000        30.2442394246     85000.7203524213         0.1045357186      -783.0339147435      -873.2763999078         1.6915868242        14.3163785561       -35.3177404806      2145.2568040474     -2665.2620992978      -333.9613295571      -825.5179059876       -34.2710030033 
    5000        30.2039433428     85000.7203524213         0.1045357186      -865.6631880130      -955.7854380968         1.6535532777        14.6285938215       -35.7748310975      2121.1301485849     -2665.4925737610      -391.9303289225      -785.5777391196        64.6033618588 
    6000        26.9154322051     85000.7203524213         0.1045357186      -949.4372452759     -1029.7472658838         1.8319633011        14.8582428877       -33.6478624232      2108.8715150582     -2665.4894037811      -456.1717209265      -887.7792122533        49.7383266736 
    7000        20.3268798303     85000.7203524213         0.1045357186     -1010.0520258958     -1070.7031841467         1.8084136008        15.0569905956       -34.3325675448      2108.0191892638     -2666.9337780921      -494.3214319701     -1029.1077872882       -15.3719092012 
    8000        18.1773556012     85000.7203524213         0.1045357186     -1042.2362330206     -1096.4736605233         1.8646062641        15.6767705648       -34.3348437493      2086.5219251366     -2666.7808920985      -499.4212266410     -1071.3241970674       -23.4646904402 
    9000        16.3325087440     85000.7203524213         0.1045357186     -1065.9258203824     -1114.6586106945         1.8466904896        15.6021348730       -35.3596367065      2068.1130660218     -2667.2154468122      -497.6454185602     -1000.3778915849        52.8762293489 
   10000        16.1544289826     85000.7203524213         0.1045357186     -1081.0168638638     -1129.2183014115         1.8246013384        15.7084681050       -36.6732136075      2073.5254512309     -2666.8451382231      -516.7584702552     -1072.9301309236         6.5234089539 
Loop time of 42.6037 on 24 procs for 10000 steps with 1002 atoms

Performance: 20.280 ns/day, 1.183 hours/ns, 234.721 timesteps/s
99.3% CPU use with 24 MPI tasks x no OpenMP threads

MPI task timing breakdown:
Section |  min time  |  avg time  |  max time  |%varavg| %total
---------------------------------------------------------------
Pair    | 0.066973   | 3.4281     | 23.515     | 285.8 |  8.05
Bond    | 0.017076   | 0.2402     | 1.0206     |  54.2 |  0.56
Kspace  | 4.6981     | 24.718     | 28.012     | 105.9 | 58.02
Neigh   | 11.834     | 11.953     | 12.067     |   2.4 | 28.06
Comm    | 1.2192     | 2.2072     | 2.6297     |  24.8 |  5.18
Output  | 0.0017989  | 0.0018609  | 0.0028698  |   0.5 |  0.00
Modify  | 0.014296   | 0.027381   | 0.066957   |   8.4 |  0.06
Other   |            | 0.0285     |            |       |  0.07

Nlocal:    41.75 ave 221 max 0 min
Histogram: 13 2 5 1 1 0 0 0 1 1
Nghost:    1193.54 ave 1494 max 794 min
Histogram: 2 0 2 4 4 0 2 2 3 5
Neighs:    13129.5 ave 104288 max 0 min
Histogram: 16 3 3 0 1 0 0 0 0 1

Total # of neighbors = 315107
Ave neighs/atom = 314.478
Ave special neighs/atom = 5
Neighbor list builds = 10000
Dangerous builds not checked
unfix relax

#===========================================================
# RUN RAMPED ANNEAL
#===========================================================

# REINITIALIZE THE VELOCITIES AND CREATE THE ANNEALING FIX
velocity        all create ${ANNEAL_TEMP} ${vseed} mom yes rot yes     # DRAW VELOCITIES
velocity        all create 400.0 ${vseed} mom yes rot yes     
velocity        all create 400.0 31748 mom yes rot yes     

fix mom all momentum 1000 linear 1 1 1 angular # Zero out system linear and angular momentum every ps
fix anneal all npt temp ${ANNEAL_TEMP} ${FINAL_TEMP} 100.0 iso ${pressure} ${pressure} 1000.0 # NPT, nose-hoover 100 fs T relaxation
fix anneal all npt temp 400.0 ${FINAL_TEMP} 100.0 iso ${pressure} ${pressure} 1000.0 
fix anneal all npt temp 400.0 298.0 100.0 iso ${pressure} ${pressure} 1000.0 
fix anneal all npt temp 400.0 298.0 100.0 iso 1.0 ${pressure} 1000.0 
fix anneal all npt temp 400.0 298.0 100.0 iso 1.0 1.0 1000.0 

# CREATE COORDINATE DUMPS FOR ANNEAL
dump anneal all custom ${coords_freq} anneal.lammpstrj id type x y z mol
dump anneal all custom 1000 anneal.lammpstrj id type x y z mol
dump_modify anneal sort id format float %20.10g

# RUN RAMPED ANNEAL
run ${nSteps_ramp}
run 50000
PPPM initialization ...
WARNING: Using 12-bit tables for long-range coulomb (../kspace.cpp:321)
  G vector (1/distance) = 0.157261
  grid = 10 10 10
  stencil order = 5
  estimated absolute RMS force accuracy = 0.019352
  estimated relative force accuracy = 5.82781e-05
  using double precision FFTs
  3d grid and FFT values/proc = 720 60
Per MPI rank memory allocation (min/avg/max) = 9.722 | 10.17 | 10.96 Mbytes
Step Temp Volume Density TotEng PotEng E_bond E_angle E_dihed E_coul E_long E_vdwl Enthalpy Press 
   10000       400.0000000000     85000.7203524213         0.1045357186        64.2980426085     -1129.2183014115         1.8246013384        15.7084681050       -36.6732136075      2073.5254512309     -2666.8451382231      -516.7584702552       835.9280465302       622.4587993606 
   11000       377.0446832346     83522.7892588297         0.1063854723      1475.3149724498       350.2924927840       411.0366115223       451.0464412950         9.6029236455      2391.6210064170     -2662.8326236773      -250.1818664185      1422.5017938553       -43.3572199812 
   12000       409.2260497113     74794.5589525160         0.1188002377      1658.8588795701       437.8139327472       436.5074421723       451.2036558303        11.6705480619      2415.7921558035     -2661.8564573959      -215.5034117248      1668.3027104721         8.6576955002 
   13000       389.3592435835     69359.3031197243         0.1281098711      1559.1658602531       397.3993079727       410.1280439617       441.0958349798        21.8899826027      2421.5309155699     -2662.2713328889      -234.9741362525      1601.3788624146        41.7316570441 
   14000       386.7516886477     66831.9213874096         0.1329546001      1551.8997047227       397.9135510268       380.6675832211       462.3548498935        11.9633864793      2420.5866449870     -2662.3838628831      -215.2750506709      1285.5571833804      -273.2628982740 
   15000       387.2767581229     63437.7042886869         0.1400682998      1593.6338752001       438.0810240032       411.3441672795       447.8649347522        14.2440410526      2442.3359411387     -2663.9337205995      -213.7743396203      1386.3331362514      -224.0667952510 
   16000       381.2128968259     60507.2621799621         0.1468519821      1565.4361484671       427.9765911849       413.2968136642       456.3263398126        18.5944691631      2419.4181913144     -2664.1775059173      -215.4817168521       850.6031231193      -810.0675153996 
   17000       379.9608093198     56942.8454430724         0.1560443865      1541.4082637295       407.6846737038       400.8090452887       451.8674366230         8.7804891745      2435.1964379732     -2663.3013501282      -225.6673852274      1684.5377983838       172.3511576312 
   18000       374.7619073930     54474.9116873952         0.1631138282      1540.1371955218       421.9260415478       388.6482708547       448.7142334135        11.1676135582      2444.6687643918     -2661.4197693327      -209.8530713377      1402.7802110159      -172.8933636606 
   19000       386.3801066635     50888.7014848540         0.1746087270      1512.5148696749       359.6374389072       371.1528792630       427.4189800838         8.3762400800      2441.5537217644     -2663.1359106564      -225.7284716277      1800.8698721178       388.5350755258 
   20000       375.5938338914     47129.7638113470         0.1885350289      1449.3997040679       328.7062554116       355.4458096826       434.6498379661         8.6409888410      2437.4318559417     -2663.9724486623      -243.4897883576      1825.1432984153       546.6639470958 
   21000       362.6363082637     44014.7604616650         0.2018779903      1453.1251562952       371.0942541756       374.4511372334       438.7865294023        18.7320356734      2432.9438085015     -2664.2131219098      -229.6061347251      1568.4627076542       179.6786578802 
   22000       368.1737320544     40711.5908434270         0.2182575330      1408.2400457706       309.6866291563       363.7738590132       423.5868470399        14.8384932170      2424.6654520749     -2663.4440880876      -253.7339341012      1810.7074984570       677.8549977555 
   23000       379.0284203287     38895.7786640405         0.2284466770      1428.9532876674       298.0117513913       361.3732072190       419.5043601311        18.5300183200      2415.5961248848     -2664.1208305408      -252.8711286229      1346.7870756716      -144.8488015053 
   24000       364.3890429803     35838.4648448508         0.2479350447      1390.1098806478       302.8491847010       354.2117066320       416.0096089838        17.0229765109      2422.6124954556     -2663.9911812912      -243.0164215902      1831.0762675987       843.6847491206 
   25000       360.2801077802     33074.9617210480         0.2686506929      1309.6299566618       234.6294640094       329.5138304407       400.3422290848        20.6355531751      2397.2313017653     -2664.9184028009      -248.1750476555      1080.0984425226      -475.8467220557 
   26000       360.0049702437     30701.7551467127         0.2894170493      1254.4784625007       180.2989227149       313.7326941114       383.7937490515         8.9984000267      2399.2527280839     -2665.6221060810      -259.8565424776      1265.2037132773        23.9534659409 
   27000       359.9733416638     28487.5864372199         0.3119116954      1321.6200378992       247.5348711811       343.6394990959       402.4514409486        13.0646563182      2404.6004175282     -2666.5654586289      -249.6556840809      1311.5161785932       -24.3195617683 
   28000       370.7001342827     26650.0366468655         0.3334183552      1352.3388314406       246.2471589485       340.4550689774       416.2800289701        13.2649414468      2423.1064448601     -2664.8869339302      -281.9723913757      1300.4438110335      -133.5217411840 
   29000       359.5309342637     25151.4111704210         0.3532848047      1246.2423776604       173.4772620991       338.8119278693       371.4886595822        19.2812527641      2392.0957280853     -2665.0602886301      -283.1400175716      1210.7679532685       -96.7112754471 
   30000       350.8694822644     24346.6935559086         0.3649617293      1237.3972678872       190.4761136363       324.1799184273       388.5019294541        17.1026187276      2415.5870050374     -2664.0537506958      -290.8416073144      1517.9687679507       790.1829876550 
   31000       351.2001943183     22826.5225210366         0.3892669755      1200.0984719774       152.1905421227       352.4031414317       341.2002452188        20.9432720038      2402.3783188391     -2665.9707391034      -298.7636962674       553.4700712250     -1942.4020672755 
   32000       335.8932115385     21486.9850909711         0.4135345813      1167.4328994009       165.1978048594       328.6023202558       371.5615198709        18.4161912379      2416.3054028210     -2666.1525973801      -303.5350319461      1309.2554207971       452.5784079186 
   33000       356.6906628432     19865.6924267725         0.4472842523      1119.5328088857        55.2424692290       309.7813501072       348.1218558460        14.5058560383      2373.0833493442     -2666.3126121975      -323.9373299091       984.7393770547      -465.2529483746 
   34000       342.0926753396     18547.6784654158         0.4790686554      1134.2174478532       113.4844498850       328.7604022838       369.9751349020        19.9208059131      2372.8730104268     -2666.4551186080      -311.5897850326       947.5022852697      -690.2622761490 
   35000       339.8309745671     17876.6313970411         0.4970517759      1077.3453815328        63.3608256575       309.0652409245       366.4268658675        14.7241035799      2380.4606189799     -2665.3202077794      -341.9957959149      1320.8241720942       933.8982487314 
   36000       349.3649784026     17651.5580797539         0.5033896353      1118.6719590508        76.2399296715       300.3661140131       366.8420114082        24.8568562777      2377.7999142269     -2666.4373195771      -327.1876466772      1238.5294913694       465.5929510453 
   37000       338.7924283714     16583.3714715272         0.5358145296      1028.6272325214        17.7414812925       294.7766598222       367.8965858056        14.3522957542      2360.8162063818     -2666.8452897798      -353.2549766916      1167.7684085251       575.3166608004 
   38000       335.3465389300     15900.4098197607         0.5588290795       970.1456692410       -30.4582685676       298.5496304751       335.6669433567        13.9594515276      2376.7181178312     -2667.3007332776      -388.0516784806      1043.2850341628       315.4038407590 
   39000       354.3688845358     15200.6205881058         0.5845558299      1039.9927550165       -17.3698837477       307.3028102691       353.7839473555        14.5626481196      2370.5647449480     -2666.0773259468      -397.5067084930      1384.4267714163      1553.7059450782 
   40000       344.3736020913     15578.8707575345         0.5703629950       956.9798066437       -70.5589997187       270.2075130303       355.3946890326        13.5151075329      2350.0017150674     -2666.9358332935      -392.7421910883      1038.4401706036       358.5374144880 
   41000       332.6323496584     15776.7771475778         0.5632082713      1006.2945198655        13.7891551979       310.9071449493       364.4080482015        17.1356461957      2346.4405838686     -2667.4264153539      -357.6758526634       983.3997795057       -99.5042297691 
   42000       335.8845708370     16380.9169331085         0.5424367525       998.7237627448        -3.4855497506       303.1606743476       366.4929086285        13.2625176667      2349.0415510234     -2667.3405351195      -368.1026662972      1088.6946613931       376.6066296310 
   43000       328.6055695061     14779.2491771216         0.6012221106       883.6641111809       -96.8261836728       275.3140614177       343.5351007543        21.8025524337      2342.9940660893     -2667.7121391296      -412.7598252382       791.4675204411      -427.7466344647 
   44000       326.0787509580     14928.9057332288         0.5951950895       877.7109991135       -95.2397976516       286.2944716063       349.4573232631         6.4802107295      2343.7257887827     -2666.3954787499      -414.8021132832      1423.4230157567      2506.4535000976 
   45000       307.8582267902     15031.4852470494         0.5911332937       787.0305397172      -131.5540235707       260.0324125842       346.1802280802        12.6552342210      2322.3621400809     -2666.6128198217      -406.1712187153       338.5252525181     -2045.9253464923 
   46000       333.9539138494     14726.3697273754         0.6033809790       889.5617524559      -106.8868833659       281.0093772413       342.1154017981        20.4994924701      2337.0099761076     -2666.3935147174      -421.1276162656       829.0265042078      -281.8621358043 
   47000       325.5760278244     15587.5067901616         0.5700469936       929.4568635234       -41.9939125505       300.7311013619       352.8004303802        16.6509542852      2349.7311308777     -2667.1555833793      -394.7519460762       701.0405066411     -1004.7884990419 
   48000       332.3881914567     14987.3792908203         0.5928729240       924.4880182210       -67.2888294360       287.4410065290       352.5784104597        19.3518176671      2343.1526736429     -2665.6437342891      -404.1690034455       906.3393870790       -83.0313857862 
   49000       330.7095406218     15154.5182099303         0.5863341388       897.1220089649       -89.6460956738       282.2835490082       345.3508155665        10.6486064131      2332.1000935380     -2668.5164403033      -391.5127198964      1084.2977451520       846.8988178322 
   50000       318.7239091534     14605.2288418186         0.6083856323       823.2311297138      -127.7743572976       277.7358482092       343.1436604577         9.7854170450      2335.2226016238     -2667.6076038079      -426.0542808253       671.5291662440      -712.2081618966 
   51000       321.2179787673     14085.6763120163         0.6308260382       753.1203327368      -205.3269363929       258.0040746140       338.9928387359        17.1372497905      2290.8797073994     -2668.1270779790      -442.2137289537       759.8886846681        32.9480213665 
   52000       308.5553808151     14612.9252356880         0.6080652053       796.5593566983      -124.1053683970       287.1324028276       334.8422171291        12.1851003904      2344.6359553889     -2668.0837403543      -434.8173037786       -71.0386755172     -4071.0412847971 
   53000       322.3999194263     14272.3941585605         0.6225732897       780.9981247300      -180.9758081350       267.1733699568       324.5602832376        14.2736381638      2328.9685139187     -2668.2105937701      -447.7410196418      1096.4380208390      1515.4579857922 
   54000       322.4492732316     13745.7335521076         0.6464268604       753.3472234756      -208.7739708226       257.4977609625       316.0904366582        10.0575752225      2316.7637888557     -2667.2354012058      -441.9481313158       687.6881421986      -327.5299289377 
   55000       312.6857989380     13817.8343705319         0.6430538350       775.8835111928      -157.1055177459       273.9307164145       340.8777789121        18.6203660815      2327.6169634549     -2666.2767274914      -451.8746151176      1198.4261225508      2096.7885671413 
   56000       302.6873469089     14153.7898236327         0.6277902593       684.0465685825      -219.1091705769       251.8399727096       317.6656648249        12.3254793486      2311.9390354967     -2666.8946343777      -445.9846885791       865.4851552493       878.9841069146 
   57000       296.3376778199     14190.4694076920         0.6261675444       723.5815741127      -160.6280804548       290.5011652834       318.6271956962        10.6084388826      2316.0114003724     -2667.3666033769      -429.0096773124       577.9315386745      -703.7816570941 
   58000       303.4562779408     14153.1117756035         0.6278203355       716.9342217942      -188.5158467504       249.0825474096       343.6218818847         6.8885360724      2307.1694581256     -2667.7063936686      -427.5718765741       859.3737746866       690.0852992608 
   59000       300.6794358066     13782.7884392032         0.6446889483       698.4833030379      -198.6812493268       267.9496056022       330.3651530767        21.2059000977      2292.3676243207     -2668.2091759001      -442.3603565240       594.3612900517      -517.9997812900 
   60000       301.9004158235     13195.0978374368         0.6734024630       628.6005457087      -272.2071556707       259.3860164119       304.1351402544        15.9960688555      2279.0146959755     -2666.7664820352      -463.9725951328       178.2494893956     -2340.2523047122 
Loop time of 133.815 on 24 procs for 50000 steps with 1002 atoms

Performance: 32.283 ns/day, 0.743 hours/ns, 373.651 timesteps/s
99.5% CPU use with 24 MPI tasks x no OpenMP threads

MPI task timing breakdown:
Section |  min time  |  avg time  |  max time  |%varavg| %total
---------------------------------------------------------------
Pair    | 16.671     | 24.704     | 48.835     | 143.2 | 18.46
Bond    | 0.69085    | 1.1134     | 2.3325     |  39.9 |  0.83
Kspace  | 17.887     | 43.228     | 51.639     | 114.5 | 32.30
Neigh   | 50.041     | 50.231     | 50.435     |   1.6 | 37.54
Comm    | 11.202     | 11.949     | 12.703     |  14.1 |  8.93
Output  | 0.050047   | 0.050389   | 0.057214   |   0.6 |  0.04
Modify  | 1.4147     | 2.2406     | 2.8714     |  32.6 |  1.67
Other   |            | 0.2987     |            |       |  0.22

Nlocal:    41.75 ave 54 max 34 min
Histogram: 3 2 4 5 4 0 1 2 2 1
Nghost:    4978.88 ave 5047 max 4932 min
Histogram: 3 1 6 1 5 2 3 2 0 1
Neighs:    27181 ave 41416 max 18147 min
Histogram: 4 5 3 1 4 1 2 0 2 2

Total # of neighbors = 652345
Ave neighs/atom = 651.043
Ave special neighs/atom = 5
Neighbor list builds = 50000
Dangerous builds not checked
unfix anneal

# RUN EQUILIBRATION PHASE AT FINAL TEMP
fix anneal all npt temp ${FINAL_TEMP} ${FINAL_TEMP} 100.0 iso ${pressure} ${pressure} 1000.0 # NPT, nose-hoover 100 fs T relaxation
fix anneal all npt temp 298.0 ${FINAL_TEMP} 100.0 iso ${pressure} ${pressure} 1000.0 
fix anneal all npt temp 298.0 298.0 100.0 iso ${pressure} ${pressure} 1000.0 
fix anneal all npt temp 298.0 298.0 100.0 iso 1.0 ${pressure} 1000.0 
fix anneal all npt temp 298.0 298.0 100.0 iso 1.0 1.0 1000.0 
run ${nSteps_ramp}
run 50000
PPPM initialization ...
WARNING: Using 12-bit tables for long-range coulomb (../kspace.cpp:321)
  G vector (1/distance) = 0.183091
  grid = 8 8 8
  stencil order = 5
  estimated absolute RMS force accuracy = 0.00876765
  estimated relative force accuracy = 2.64035e-05
  using double precision FFTs
  3d grid and FFT values/proc = 567 32
Per MPI rank memory allocation (min/avg/max) = 10.1 | 10.62 | 11.09 Mbytes
Step Temp Volume Density TotEng PotEng E_bond E_angle E_dihed E_coul E_long E_vdwl Enthalpy Press 
   60000       301.9004158235     13195.0978374368         0.6734024630       628.6495713903      -272.1581299890       259.3860164119       304.1351402544        15.9960688555      2715.5821797469     -3103.2849401250      -463.9725951328       178.6838147031     -2338.2500926052 
   61000       296.0149694878     13405.1938783558         0.6628484052       594.9161943129      -288.3305660828       250.2854039343       304.2223922824        16.9575891914      2713.9260396063     -3104.1063091955      -469.6156819017       433.7910310682      -824.1654063759 
   62000       291.8884409660     13062.5393179565         0.6802361445       616.8650792646      -254.0689830438       276.9328023525       315.9220719114        12.1738546625      2718.7398991603     -3103.8751074979      -473.9625036326       538.9090059427      -409.2102046313 
   63000       294.0758434820     13907.0086007785         0.6389304586       651.9526228048      -225.5081911385       263.1856927264       327.9109609303         3.1881630941      2730.3359578904     -3104.2622188276      -445.8667469521       701.1873174077       242.7513399068 
   64000       307.6003190895     13092.3443687396         0.6786875699       646.6476123183      -271.1674083295       246.7239813117       314.0876200897        12.1476018229      2734.8929175296     -3104.9838038899      -474.0357251934       883.3632363233      1239.7485650097 
   65000       305.1851670257     13561.3930894038         0.6552137620       715.1794741160      -195.4292378780       278.6057644607       335.0280183038        10.5210922554      2743.9071788789     -3104.3779185936      -459.1133731833       638.5880679383      -387.2575103164 
   66000       304.9968562088     13312.3612851758         0.6674707209       681.1151911511      -228.9316407488       294.2945320277       314.2304495371        20.3756954286      2723.8340213223     -3105.7045759272      -475.9617631373       955.1251475592      1411.3520511230 
   67000       302.1631939059     13468.1902909224         0.6597479833       672.5007957219      -229.0909804979       271.6770184293       339.4112712605         9.7013308286      2721.5329314012     -3104.1668812213      -467.2466511963       746.4874927565       376.6764826723 
   68000       309.2152056695     12991.5746242317         0.6839518411       695.8151679252      -226.8183365400       276.1164778765       339.5672154269        10.5483510149      2742.4320785018     -3103.1084484919      -492.3740108682      1149.0491249928      2392.1298964283 
   69000       290.1259089353     13116.1527425623         0.6774556196       632.4342481667      -233.2407871781       273.9403888441       328.3547016438        10.3830449442      2738.8702256580     -3102.8279210973      -481.9612271708      1060.1000887054      2235.7446890828 
   70000       296.8269331828     13312.5737527231         0.6674600681       608.4023965841      -277.2670936634       251.9100924918       316.3898200087        10.8216011627      2702.5691266225     -3104.1079612412      -454.8497727079       608.0544486759        -1.7921580762 
   71000       293.0574354096     13090.6794494629         0.6787738878       605.7234438889      -268.6986533559       256.2478404438       314.0508441755         6.8305650819      2718.0501916035     -3104.9461955216      -458.9318991391       254.2175008193     -1841.1729866590 
   72000       310.1203269055     13545.3502655664         0.6559897832       703.1805052544      -222.1536916819       275.5185689321       332.8211918886        20.6163729583      2714.3565157227     -3104.1607688241      -461.3055723596       855.0597606218       768.8335559989 
   73000       291.3020692424     13686.8189406235         0.6492093906       642.3591244292      -226.8253272901       272.0941680453       314.6332088162        14.6154079848      2735.1916129903     -3104.7122436069      -458.6474815197       457.4405085741      -926.4078416019 
   74000       288.2808405066     13134.9018041773         0.6764886039       595.5988085006      -264.5709285304       255.6998005411       330.8708910286         3.7578902449      2719.9871365588     -3104.4797813593      -470.4068655446       968.7489534739      1947.9638583743 
   75000       293.7486739957     13554.8415152528         0.6555304519       642.4833651386      -234.0012434816       249.8608759939       335.0293738131         3.0484107781      2749.7021756658     -3105.1079106914      -466.5341690411       735.8841687970       472.4765729926 
   76000       308.8666097753     13167.4428546691         0.6748167797       671.1752273122      -250.4181399099       259.9266165685       325.5350168910        11.6952796120      2724.5516210947     -3103.0105646255      -469.1161094506       584.2375007441      -452.7213203257 
   77000       314.0020574538     12957.5264784835         0.6857490431       680.4867533059      -256.4297157615       262.1629640240       321.0917833017        13.6747293186      2723.5348432920     -3105.3962599348      -471.4977757629       369.9480546512     -1643.3033263155 
   78000       300.4188862171     13556.3499535733         0.6554575099       667.3981986413      -228.9889282396       275.9185322853       306.9182036265        14.5342356482      2729.9249651356     -3105.0062602045      -451.2786047306       667.8959801188         2.5177932883 
   79000       293.8960118602     13641.5842651562         0.6513621300       630.0046874337      -246.9195465597       270.2673802300       312.1918440266         8.2108133542      2720.5008954393     -3104.2219305967      -453.8685490131       903.5680125785      1375.0458335853 
   80000       296.0896838687     13536.9319930161         0.6563977265       622.5298419570      -260.9398505255       249.2858219701       311.0788747748         4.7861391932      2720.6419502740     -3103.9859764792      -442.7466602585      1215.1228716811      3001.6524282753 
   81000       295.1215075684     13159.4764199929         0.6752252977       641.3773143366      -239.2035425503       260.0679661884       329.7045784354         8.6865539798      2744.1120566513     -3104.8169203628      -476.9577774423       410.7632019326     -1201.6317108293 
   82000       289.2194485752     13801.2218019906         0.6438278807       631.8654449032      -231.1049023041       269.7072134453       313.2343122426        14.5326128728      2734.9325663652     -3105.3323514135      -458.1792558165       570.5794062342      -304.4865587596 
   83000       285.9635753661     13147.4715547201         0.6758418413       594.9807287530      -258.2747737315       264.9623045846       310.3868811745        17.0834808855      2726.4549333652     -3105.2024605712      -471.9599131701       885.5143476427      1515.2289676815 
   84000       304.1300268889     13363.2905717338         0.6649269007       661.9657814284      -245.4946130695       257.2436131382       321.8810646358        13.9626090410      2721.1491380085     -3104.2547555646      -455.4762823283       909.7796632285      1271.5584532729 
   85000       293.2804349533     13039.4865320221         0.6814387485       577.5296816563      -297.5577995888       247.3918893070       311.6777580729        12.6778113359      2704.4290819648     -3104.1820745044      -469.5522657651       563.5942186579       -73.2799261497 
   86000       315.0783623912     13630.7517871848         0.6518797732       735.2528552872      -204.8750826153       256.8465220173       352.4097653104        18.2771100344      2734.8280820811     -3105.1210222698      -462.1155397886       425.5802152429     -1557.7836371919 
   87000       306.9859995839     13229.4821747859         0.6716522435       645.9879289995      -269.9940907222       257.0883006793       317.4406845030         6.5816206652      2728.0346382077     -3105.9324794571      -473.2068553203       465.7224993690      -934.3158428841 
   88000       303.1739460828     13548.5256497944         0.6558360381       631.1352566206      -273.4723927067       252.6223603868       309.3822491360        10.0604985861      2727.2808900429     -3103.6418132914      -469.1765775671       793.0138783338       819.2596596979 
   89000       291.5258153177     13955.6945924378         0.6367014787       633.5159363136      -236.3361269000       261.5572282455       315.0360229378        11.6472255973      2725.2869121264     -3104.6125840614      -445.2509317455       454.8405714278      -877.8843997065 
   90000       295.1122876069     13728.1761729914         0.6472535952       710.4701627049      -170.0831837450       284.7442055723       334.5636340589        16.9020273008      2738.3051104720     -3104.2940213135      -440.3041398355       889.0975283123       892.1939215363 
   91000       293.2299437967     13446.9427633049         0.6607904518       593.0331041488      -281.9037220447       251.3684838543       304.1901281793         8.3794395484      2729.4312814366     -3105.1424017818      -470.1306532817       474.3472415655      -605.2008715657 
   92000       295.2028806619     13726.8763893247         0.6473148830       663.7767152005      -217.0469419788       278.9628145119       323.5027736154        15.9461398659      2720.7569542596     -3105.8354182541      -450.3802059776       757.8531634003       469.9301398900 
   93000       284.2863311350     13055.9524926985         0.6805793287       562.6053178077      -285.6456386701       265.9819732751       298.7304902709         9.3995470513      2727.2142228354     -3104.7571562232      -482.2147158796       179.3209831304     -2012.9668316312 
   94000       293.6932959607     13531.8589544878         0.6566438073       595.5620964599      -280.7572756855       246.1410597837       304.9182185598        15.5859509681      2719.1087768507     -3105.2082983181      -461.3029835297       532.1174431115      -321.4857127136 
   95000       294.2812424200     13842.5891233288         0.6419038595       663.7988917100      -214.2747897070       278.3465975631       334.3249443106        11.0806763360      2721.6348624566     -3104.7986556332      -454.8632147401       273.0913406888     -1935.3458564269 
   96000       302.6920188293     13352.6965990010         0.6654544509       673.8130863113      -229.3565928815       285.4401052384       311.5097780910         6.4000958299      2736.5806277710     -3102.1992946266      -467.0879051852       560.3708828724      -582.5454076813 
   97000       301.2712680486     13667.6034832038         0.6501221223       668.1712112481      -230.7592447511       269.2489905869       326.2986346518        21.5041221611      2727.6027613174     -3103.8249478581      -471.5888056103       720.0162019087       260.0989149016 
   98000       302.9357554262     13790.0319528164         0.6443503114       674.7205515481      -229.1763866750       254.6313244002       326.4573695270         3.4067229345      2738.9523917115     -3103.1323070630      -449.4918881852      1068.8799661711      1959.8856921071 
   99000       295.3315954888     13206.4186246025         0.6728252099       635.0508750289      -246.1568402747       269.4420597683       312.2688007876        15.2152040408      2735.8679898489     -3104.9279196249      -474.0229750955       514.7161974442      -624.7839286381 
  100000       294.7518371903     13518.7417866819         0.6572809455       653.6916118213      -225.7862259700       276.5797095550       311.9594653600        11.4498727891      2744.2611736121     -3104.6718798809      -465.3645674052       459.8345952641      -983.2622422785 
  101000       291.9809551008     13565.0217532449         0.6550384913       638.4393106419      -232.7707944965       249.1012776969       320.4707680925        18.1119276484      2740.9293398960     -3103.7278880229      -457.6562198073       834.3863365143       990.4722036156 
  102000       297.9606285727     13447.5150829375         0.6607623289       684.5102057918      -204.5419943983       266.0546116683       324.9885392967        22.9732027291      2738.7661140385     -3104.8752516857      -452.4492104452       897.2375362023      1084.6893112572 
  103000       305.1663456721     13485.0726466039         0.6589220256       694.6254989473      -215.9270540639       277.0075226269       318.2364626264        14.5087346497      2728.7180214508     -3103.0339463011      -451.3638491167       581.3523713788      -575.9671470081 
  104000       301.7230207146     13550.5222703079         0.6557394030       651.9294299604      -248.3489615145       272.9262000178       326.7608351443        17.7677242935      2702.8847367030     -3104.1721049569      -464.5163527162       668.9474419114        86.1146222007 
  105000       297.1711608723     13949.2727590850         0.6369945973       723.2158526602      -163.4807410210       282.6561296054       346.6731217171        18.3135873501      2725.9692601879     -3105.2597379969      -431.8331018845       915.1696273340       943.5593030520 
  106000       296.4419496243     13707.2463007484         0.6482418998       684.1167204085      -200.4040594159       268.3648724687       326.8057627658        10.6947734519      2741.3727457113     -3103.6313543573      -444.0108594562       432.6605219192     -1257.8713910899 
  107000       302.3584656311     12806.4260183605         0.6938400590       618.1632921178      -284.0111340911       250.9196989939       314.0959058187        14.6474627154      2731.2310413311     -3105.0162794174      -489.8889635329      1228.2615848883      3266.6001325822 
  108000       289.1655524936     13676.1355585857         0.6497165333       626.1853065146      -236.6242260570       251.8353592118       327.8065135202        11.9000523927      2749.6475300020     -3103.8579036064      -473.9557775774       131.0100986960     -2482.6734863783 
  109000       295.1019689984     13032.0076088600         0.6818298186       592.7546032606      -287.7679546196       231.0570437364       326.8864204734        16.0460235669      2728.9967312315     -3104.6853040995      -486.0688695283       540.7026292347      -273.8734862428 
  110000       317.8951413012     13251.3487571746         0.6705439232       668.9774205385      -279.5551965304       273.0606939230       301.7740075317        15.9057470664      2709.6231924464     -3105.4319473123      -474.4868901856       809.4197219325       726.7113847808 
Loop time of 125.812 on 24 procs for 50000 steps with 1002 atoms

Performance: 34.337 ns/day, 0.699 hours/ns, 397.419 timesteps/s
99.6% CPU use with 24 MPI tasks x no OpenMP threads

MPI task timing breakdown:
Section |  min time  |  avg time  |  max time  |%varavg| %total
---------------------------------------------------------------
Pair    | 22.881     | 30.815     | 39.114     |  98.0 | 24.49
Bond    | 0.89638    | 0.92287    | 0.95268    |   1.5 |  0.73
Kspace  | 13.934     | 22.252     | 30.219     | 115.4 | 17.69
Neigh   | 55.277     | 55.342     | 55.412     |   0.6 | 43.99
Comm    | 14.067     | 14.485     | 14.898     |   7.2 | 11.51
Output  | 0.049646   | 0.049961   | 0.056797   |   0.6 |  0.04
Modify  | 1.1803     | 1.5826     | 1.9475     |  20.7 |  1.26
Other   |            | 0.3635     |            |       |  0.29

Nlocal:    41.75 ave 54 max 32 min
Histogram: 1 2 6 3 2 3 3 2 1 1
Nghost:    4998.04 ave 5107 max 4841 min
Histogram: 2 0 2 2 3 2 5 2 3 3
Neighs:    27052.5 ave 41181 max 17395 min
Histogram: 3 5 0 3 4 3 3 1 1 1

Total # of neighbors = 649261
Ave neighs/atom = 647.965
Ave special neighs/atom = 5
Neighbor list builds = 50000
Dangerous builds not checked
unfix anneal
undump anneal

# RETURN TO LESS FREQUENT NEIGHBOR BUILDS
neigh_modify every 1 delay 10 check yes one 10000 # More relaxed rebuild criteria can be used

#===========================================================
# RUN EQUILIBRIUM SIM
#===========================================================

# UPDATE RUN PARAMETERS AND CREATE FIX
fix equil all npt temp ${FINAL_TEMP} ${FINAL_TEMP} 100.0 iso ${pressure} ${pressure} 1000.0 # NPT, nose-hoover 100 fs T relaxation
fix equil all npt temp 298.0 ${FINAL_TEMP} 100.0 iso ${pressure} ${pressure} 1000.0 
fix equil all npt temp 298.0 298.0 100.0 iso ${pressure} ${pressure} 1000.0 
fix equil all npt temp 298.0 298.0 100.0 iso 1.0 ${pressure} 1000.0 
fix equil all npt temp 298.0 298.0 100.0 iso 1.0 1.0 1000.0 

# CREATE COORDINATE DUMPS FOR EQUILIBRIUM
dump equil all custom ${coords_freq} equil.lammpstrj id type x y z mol
dump equil all custom 1000 equil.lammpstrj id type x y z mol
dump_modify equil sort id format float %20.10g

# RUN EQUIL
run		${nSteps_equil}
run		100000
PPPM initialization ...
WARNING: Using 12-bit tables for long-range coulomb (../kspace.cpp:321)
  G vector (1/distance) = 0.183003
  grid = 8 8 8
  stencil order = 5
  estimated absolute RMS force accuracy = 0.00880453
  estimated relative force accuracy = 2.65146e-05
  using double precision FFTs
  3d grid and FFT values/proc = 567 32
Per MPI rank memory allocation (min/avg/max) = 10.93 | 11.15 | 11.59 Mbytes
Step Temp Volume Density TotEng PotEng E_bond E_angle E_dihed E_coul E_long E_vdwl Enthalpy Press 
  110000       317.8951413012     13251.3487571746         0.6705439232       668.9771253035      -279.5554917654       273.0606939230       301.7740075317        15.9057470664      2708.1330518337     -3103.9421019345      -474.4868901856       809.4181263293       726.7046560931 
  111000       289.5431062762     13248.5134248003         0.6706874272       626.6169589259      -237.3191151716       270.5752805709       342.4862922548         9.4947159771      2714.0861737017     -3103.9302738076      -470.0313038684       492.7713721087      -692.7252476209 
  112000       297.0563391608     13713.9999158046         0.6479226658       667.2014637787      -219.1525259293       247.3884463922       337.9725636745         8.2630682574      2739.4047475759     -3103.3980761584      -448.7832756708       629.9718207322      -186.1439135476 
  113000       299.8759649073     13128.1368838989         0.6768371980       626.6667249809      -268.1004382581       259.4871973278       321.6490675815        12.6070316119      2706.4185652581     -3103.9518035223      -464.3104965152       757.7627909930       684.7163111322 
  114000       304.1336950832     13958.3215641526         0.6365816508       703.0343736594      -204.4369659632       263.4469838924       322.9480466814        12.0359914424      2743.5070687977     -3103.0678403767      -443.3072164003       697.9176529432       -25.1352161428 
  115000       307.6044026417     13741.5706491398         0.6466226904       691.5310002918      -226.2962048218       269.0592381244       317.7022485966         6.8128816712      2730.6536977435     -3103.1758065115      -447.3484644461      1064.4830342908      1860.9757570862 
  116000       308.4330461746     13587.4518113743         0.6539571589       672.7601806554      -247.5395234579       276.8668657425       299.4511258171        12.6640761847      2715.6137449848     -3103.6405583318      -448.4947778553       656.8191040749       -80.4458679737 
  117000       294.3592105926     13882.4724429673         0.6400597170       581.7279785038      -296.5783436340       243.6815096251       268.7435143210        11.6541860977      2719.2614985488     -3101.4340496199      -438.4850026067       566.3455340104       -75.9770885243 
  118000       296.8150014696     13566.4037339660         0.6549717639       662.3482946405      -223.2855938703       271.5699310305       312.7819983178        11.8295962658      2740.1054746782     -3103.4580671053      -456.1145270574       996.2600648728      1687.6838758196 
  119000       299.9923680802     13435.0308407947         0.6613763295       662.9612852950      -232.1532006676       261.3681246664       304.4964069475        19.3874816098      2733.5555239706     -3103.3314461170      -447.6292917449       510.3964883564      -778.6455003221 
  120000       310.4450706644     13967.4140455190         0.6361672500       748.1680978184      -178.1350665776       275.5737754779       330.9572863579        14.2611997805      2742.7558573963     -3103.2579484379      -438.4252371524       915.8270726888       823.0664695644 
  121000       289.3577130423     13792.3273087864         0.6442430769       673.6574857878      -189.7254136729       287.3793005718       319.0063890666        14.9056891799      2745.6529266669     -3101.1138452927      -455.5558738654       369.8588924860     -1510.3316181213 
  122000       302.3364497345     12953.0164110335         0.6859878118       619.4263083639      -282.6824270138       253.5143080796       285.4497075900         9.5839279906      2730.1016896973     -3103.8966515621      -457.4354088092       860.9893851414      1278.7444076000 
  123000       302.1413751423     13637.5939596972         0.6515527160       631.1179130124      -270.4087605801       261.5928533161       293.4657597428        10.8100085742      2729.0243197460     -3103.3878387877      -461.9138631715       451.4538261647      -903.3324869459 
  124000       289.6833202766     13602.0865794978         0.6532535528       656.5932423826      -207.7612009677       278.9749933574       326.3860936821        16.0484236219      2719.5243080173     -3104.0896770283      -444.6053426180       497.8542617792      -800.2066620501 
  125000       301.6939709325     12898.0131366657         0.6889131907       635.8997551655      -264.2919578351       256.5657004603       312.7867805158        13.3231283677      2734.4163873601     -3104.5020023166      -476.8819522226       983.7611744661      1849.3008115557 
  126000       295.1147521688     13923.5991454898         0.6381691466       693.6726899327      -186.8880102546       271.5610699948       330.9173453431        12.8829198548      2743.7519813797     -3103.7516006379      -442.2497261891       495.7924446184      -974.4847319455 
  127000       307.9455526780     13882.0461933466         0.6400793701       734.5785670533      -184.2665584203       280.9165075174       326.5666464129        10.6728664934      2752.5859101122     -3102.6480215411      -452.3604674151       717.4156772476       -84.7736806528 
  128000       293.5319328673     14225.0331042177         0.6246460953       658.6394496965      -217.1984487258       257.3742715378       327.8560574880        16.7924975393      2724.1614280726     -3101.9878721980      -441.3948311656       725.5296789544       322.4285641795 
  129000       291.9906300696     13389.2687092877         0.6636367957       631.4681011539      -239.7708720682       251.6209766628       333.9044022553         8.2963282243      2746.1758081613     -3100.9578658163      -478.8105215556       478.9475440131      -781.0802132016 
  130000       302.1823022163     13327.1788569386         0.6667286062       672.7299395387      -228.9188518832       248.5181395551       325.6205666962        17.3566659227      2743.9511952494     -3102.9246062584      -461.4408130482       871.7322087759      1023.8678665207 
  131000       298.1497171353     13391.8837490859         0.6635072071       666.7304110967      -222.8859898182       260.5882300072       339.6293008319         8.3429526755      2734.7977613620     -3103.0238040228      -463.2204306719       422.4818814748     -1250.5884053389 
  132000       306.0388483863     12990.9496529917         0.6839847448       606.4311676733      -306.7247509619       241.3722575973       304.4229788429        17.1368279386      2713.3597346810     -3102.3599820615      -480.6565679602       500.2178797742      -560.6115794238 
  133000       299.9656871052     13982.1112817791         0.6354985456       667.6817949617      -227.3530805515       266.7255315604       334.8334448404         2.3987941762      2712.0665667224     -3103.6728194281      -439.7045984229      1056.0895404643      1904.7555083859 
  134000       296.1833236490     13349.3512341644         0.6656212147       660.9405173398      -222.8085766635       268.1334778656       334.2854194363        11.8790439027      2722.6111198694     -3103.8918031381      -455.8258345994      1015.8675871857      1823.0688662715 
  135000       288.4514845353     13541.0617344762         0.6561975389       619.9594993554      -240.7194037689       267.4437275572       310.8461009594        12.5149308703      2718.6080040888     -3102.0679543355      -448.0642129090       594.9235331945      -126.7756215358 
  136000       292.7474466866     13002.2202499542         0.6833918525       603.6254964164      -269.8716593101       267.6279383608       305.9116170206        12.9434360279      2720.4722134475     -3102.5889349577      -474.2379292092       369.7000758200     -1233.6274121000 
  137000       296.8707873451     13114.3335804256         0.6775495933       633.0150132110      -252.7853286852       265.8802307037       337.9370977090        11.8518060074      2713.5614476573     -3101.9294686566      -480.0864421061       704.5183694328       373.8559625036 
  138000       301.3575859727     13312.1003661300         0.6674838034       670.9951316292      -228.1928790028       283.3159823235       307.2323174004        18.5134410018      2736.7157281645     -3103.4893415212      -470.4810063719       270.0950415133     -2064.9696889711 
  139000       296.2016632992     13683.3862135934         0.6493722566       674.3199951051      -209.4838205788       257.9517390542       335.2783058379        12.8607437406      2750.1690989672     -3103.3260218848      -462.4176862938       858.4057653737       922.4667998361 
  140000       287.5229818181     13285.1192345242         0.6688394155       632.4387592654      -225.4696859379       282.1387132789       319.6927409059        13.8098015372      2723.3261535496     -3101.9796281631      -462.4574670464       579.1199459401      -275.1941066437 
  141000       307.9676712954     13838.0867561634         0.6421127097       740.2116748579      -178.6994479442       258.6262319122       359.4605301918        12.3864300756      2737.9022125003     -3102.0272633842      -445.0475892398       604.3839270324      -673.0333134574 
  142000       300.3890326109     13813.8930109292         0.6432373102       656.3444593760      -239.9535905875       245.0799047463       330.6871863611        14.3220460304      2743.7616746853     -3104.2920021991      -469.5124002115      1153.6348062953      2468.4142881430 
  143000       305.3319276762     13663.5571455035         0.6503146501       682.4251012978      -228.6215137839       264.0372650105       317.0378768330         8.7936869529      2738.1879640334     -3103.8475071085      -452.8307995051      1250.7967056084      2852.2836054747 
  144000       284.9288909619     13845.6047791672         0.6417640490       623.8934904919      -226.2747301244       256.2127749720       325.6960866821        14.5515701581      2740.5746150827     -3102.6964899540      -460.6132870652       417.7148628707     -1021.0707244896 
  145000       303.1523672647     13159.8905651775         0.6752040482       628.2654026546      -276.2778599923       243.5169695785       300.9370379003        10.6586986449      2742.4187876388     -3103.5954890475      -470.2138647074       916.2127611065      1500.3235683990 
  146000       302.1985841025     13480.0374409313         0.6591681531       638.9497278122      -262.7476453530       241.8212066396       327.4820397570        13.5694442599      2718.1170726875     -3103.8547185008      -459.8826901961       924.9791337812      1454.9353513761 
  147000       302.5223946560     13838.6982184038         0.6420843379       694.1029944383      -208.5605616968       268.9186567320       321.9064500266        13.2046968680      2734.5820296463     -3101.4231457207      -445.7492492489       875.2310639613       897.4590270844 
  148000       294.5594468117     14063.5984401458         0.6318163464       684.3302232594      -194.5735618788       278.4365684211       318.2159689046        12.3199530689      2747.6074261632     -3103.4212312687      -447.7322471677       409.7620717968     -1338.6831994243 
  149000       311.0261956520     13544.2220382322         0.6560444268       687.2593892082      -240.7777306143       276.6828225126       310.3056159772         5.6145014132      2732.3647130943     -3103.1429724793      -462.6024111323       332.5031796635     -1795.9740272441 
  150000       312.0354546660     13660.7698937674         0.6504473359       717.8101724009      -213.2383652431       279.3003837658       326.6349265021         6.7358343624      2733.5055314282     -3103.4812724534      -455.9337688482       945.3580773809      1142.1464018778 
  151000       292.6917099254     13513.5213284427         0.6575348621       638.2192497356      -235.1115991524       266.5720306452       307.0103810746         8.1209377172      2740.4157127291     -3102.7478874006      -454.4827739180       916.4206849686      1411.6107120432 
  152000       304.9778953087     13228.6534808482         0.6716943184       628.6625877301      -281.3276688092       260.1948082842       303.5729144784        13.9758736915      2723.9160962518     -3103.0482361928      -479.9391253224      1014.9020730365      2002.0049172967 
  153000       317.4976784562     13611.4303926916         0.6528051151       709.2853787113      -238.0612923535       261.2371125288       323.6844846174         9.5132866918      2729.1043834518     -3103.7725335560      -457.8280260874       808.5114335987       499.8573341700 
  154000       307.4109531480     13529.6549619558         0.6567507751       708.3675501475      -208.8824421348       257.6833025630       341.5566668076        10.2647780787      2741.5344878969     -3102.6157847527      -457.3058927284       676.3907778497      -162.0585742534 
  155000       287.8380504186     13214.7136768944         0.6724028686       609.9259869441      -248.9225570695       274.0010501605       310.8688475005        11.7043341513      2725.0728437924     -3103.5431618452      -467.0264708290       941.4823495682      1720.3773630031 
  156000       295.0329876402     13760.5383904888         0.6457313756       679.1937318358      -201.1230000983       272.4437288428       330.7887476381        17.0097260458      2731.4034838187     -3104.7105172141      -448.0581692297       659.3487195046       -98.8871948605 
  157000       297.3830621019     13508.6353812467         0.6577726863       647.7461037487      -239.5827588846       248.4878881425       325.6101702499        14.0899745922      2736.5047413831     -3103.3427780268      -460.9327552256       951.6547485312      1542.6083752661 
  158000       302.9432029302     14101.9334918660         0.6300988009       685.9517298912      -217.9674301262       274.8137024799       316.1605928869         4.8568740087      2737.5344393269     -3103.3807408624      -447.9522979662       371.1708148067     -1530.5722745073 
  159000       302.8461243514     13099.6275612317         0.6783102300       618.2836223500      -285.3458754911       247.8305137710       324.8856187600        10.9695455357      2720.9394997098     -3104.2509070550      -485.7201462127       240.8101075319     -1975.8394270812 
  160000       297.5217562229     13509.9287205520         0.6577097161       647.8745791208      -239.8681177630       263.8334468292       330.5789280259         8.4646205087      2726.7855592628     -3102.7356025363      -466.7950698533       418.7655322457     -1162.8221385423 
  161000       313.4864679282     13070.6804694615         0.6798124554       644.9105592022      -290.4674985515       256.2348912522       314.0675546120         8.9283396891      2709.6416779337     -3104.6239108952      -474.7160511433       959.6815209769      1651.2794408329 
  162000       303.4904442125     13369.0402429221         0.6646409332       663.3963641702      -242.1556493836       252.8876141492       326.4020236556        24.1081363227      2718.8465043066     -3102.8250248425      -461.5749029752       535.2780479402      -657.1055002254 
  163000       288.6148592998     13583.6104128409         0.6541420958       639.7066275875      -221.4597516659       256.2041250922       329.0119223111        14.9537011295      2740.5102038235     -3102.7383974946      -459.4013065275       734.4757694693       478.3831140800 
  164000       297.0118097024     13667.1390277808         0.6501442157       649.7709376360      -236.4501854809       253.9873965158       340.6930154219        12.7372521729      2723.6749011190     -3102.0794705840      -465.4632801266       782.0566533252       663.6810991319 
  165000       313.0556997759     13318.7160820622         0.6671522487       656.0638874332      -278.0288482447       247.9696397431       313.2181574594         8.2154385374      2727.5210430235     -3102.7112335583      -472.2418934499       400.0445310122     -1318.0580899045 
  166000       295.3291159286     13273.5533034244         0.6694222097       602.1179405630      -279.0823762515       244.9425269118       331.0360009752        14.5108080079      2703.5660902068     -3104.2209215999      -468.9168807533       520.7983920353      -420.0798703708 
  167000       304.0877957199     13782.6204309875         0.6446968070       704.1651746021      -203.1692109197       252.6458746704       338.7257159382        18.5918384652      2722.6040675630     -3099.8009728732      -435.9357346833       952.4147405630      1235.0393996275 
  168000       298.8092722112     12924.0370928092         0.6875259890       600.8324073664      -290.7519679555       252.2841705066       298.2291687008        21.3043455860      2715.0362146490     -3103.3584436335      -474.2474237644       539.5429766777      -325.1707719805 
  169000       297.0491706067     13551.9846838297         0.6556686412       673.5611974526      -212.7714027891       256.4551602986       345.5645302016        12.6037988973      2749.4102098996     -3103.0463578047      -473.7587442815       738.6276943070       329.2142562876 
  170000       299.9828152364     12921.4911001925         0.6876614560       624.9161829383      -270.1697993360       255.2058365909       325.2991809424        10.3984856521      2713.8940718259     -3103.3522589237      -471.6151154236       788.0885080410       865.8805409840 
  171000       303.6439616899     13301.4802782776         0.6680167318       667.7516340265      -238.2584435732       254.7920137841       321.9932649340        15.0883601625      2741.0053068860     -3102.9008989871      -468.2364903528       551.9111085235      -597.1516748761 
  172000       303.3166839904     13018.9356013267         0.6825144279       616.0013431020      -289.0322062892       259.7658121416       302.4265770784        14.4543150341      2722.6340803986     -3101.5794577751      -486.7335331668       502.9844291126      -595.2399564566 
  173000       293.5620033899     13337.7441513401         0.6662004671       628.2941899042      -247.6334326686       255.5289341402       313.8422446131         6.3215046640      2748.7718645597     -3102.8602516587      -469.2377289869       314.2227801846     -1614.6192727140 
  174000       296.7145215660     13476.7612813937         0.6593283949       619.2680961503      -266.0659813424       254.4301409053       322.6511807267         3.1162749496      2715.1534906768     -3103.0075659631      -458.4095026378       819.8214963722      1020.3956639836 
  175000       297.9606880792     13641.2968242232         0.6513758551       660.9969222448      -228.0554555001       269.1360086970       316.8234554996         6.0296576900      2727.4546752307     -3102.4775969383      -445.0216556791       674.2774041407        66.7547672165 
  176000       296.6040896659     13837.7565320749         0.6421280330       710.5527054039      -174.4518663948       278.1978131433       350.2156082594        16.8806070139      2723.3069058549     -3103.1607329699      -439.8920676963       710.2260952086        -1.6184085449 
  177000       300.6301813347     13712.9059531357         0.6479743545       664.4148813710      -232.6027059506       259.4975911412       320.1831891672        13.1128119069      2724.6775748776     -3102.5489383012      -447.5249347423       664.5765424904         0.8083514002 
  178000       296.5740974195     13645.4314434279         0.6511784857       727.6339864295      -157.2810947783       286.8535063444       352.7839584124        11.9994037504      2745.0163237647     -3104.4899184096      -449.4443686407       257.6418000829     -2361.7149383498 
  179000       310.5472824341     13999.7448999527         0.6346980925       670.1800476094      -256.4280953309       261.3690735135       298.8430380799         7.8707682005      2720.4474082916     -3104.2552751494      -440.7031082671       587.2629387475      -406.1141664848 
  180000       295.8239450046     13453.0419219380         0.6604908715       655.6694992180      -227.0072840706       266.7438803317       319.3807640598        12.8227374976      2738.6781704158     -3103.1848037781      -461.4480325975       616.7233767239      -198.5033500465 
  181000       296.4357312127     13833.7875391830         0.6423122632       601.1683644358      -283.3338609490       244.1291058713       299.0369009460         9.0873519324      2733.5393140164     -3103.4723363747      -465.6541973404       330.1450730898     -1343.3513752496 
  182000       299.6624656921     13506.0758140101         0.6578973423       664.1509296553      -229.9791965767       268.0136798319       327.7484207327        12.5036566593      2736.6600163429     -3102.3802098730      -472.5247602704       918.6474997365      1292.0426831386 
  183000       307.0331761334     13758.5422201146         0.6458250621       654.3818825991      -261.7409020798       263.1852036232       302.5894031902        15.3043096268      2719.9123018196     -3102.8683366875      -459.8637836521       581.1832132159      -364.8000390894 
  184000       289.0363258364     13038.6379199070         0.6814830996       608.8256358737      -253.5983113794       276.8992925320       296.7043271782        15.9427930124      2731.3300231427     -3103.3391534376      -471.1355938070       367.5860277424     -1268.6461320879 
  185000       300.1554780430     13648.5860325836         0.6510279792       654.3703728475      -241.2307991311       250.0922810903       318.6522734342        11.4727344340      2742.2418568302     -3102.9796955630      -460.7102493568       769.4832884887       578.3097349938 
  186000       297.0827422782     13906.2709633502         0.6389643498       695.5010845017      -190.9316865865       275.5081207197       306.5274787666        18.8561597120      2746.1255888902     -3103.1105313057      -434.8385033693       720.2149139586       121.8578380144 
  187000       281.9791920098     13538.2699215788         0.6563328575       630.2680784679      -211.0988573753       270.4009815736       322.2966699916        10.8861144119      2751.0993734196     -3103.6697780831      -462.1122186889       600.1720204204      -152.4300379606 
  188000       278.5565311513     13089.1405286172         0.6788536928       558.2362737114      -272.9181579449       256.3941618470       312.4082976476         7.1266306066      2735.6758344082     -3103.3475074250      -481.1755750294      1066.0470885192      2660.2039007145 
  189000       303.9046517342     13475.3873830995         0.6593956174       666.0256635666      -240.7622586047       253.5887525671       328.4502788035         9.6934640245      2739.8449702493     -3103.6219858738      -468.7177383753       207.0267077302     -2335.5789331764 
  190000       293.4282512536     13442.8669809758         0.6609907988       634.2707498955      -241.2577842755       262.8792066060       320.7021884704        13.7316157391      2724.5885570967     -3102.9054642462      -460.2538879415       554.8666886921      -405.0185595817 
  191000       301.6269120567     13527.3140803759         0.6568644249       656.9317256681      -243.0598976716       276.8383449176       317.7220234875        10.0253030196      2718.6900379173     -3104.0279526152      -462.3076543984       782.2085496350       635.0139580262 
  192000       292.1795856617     13328.0388493837         0.6666855855       622.4003864009      -249.4023907898       278.3705646499       317.1484906418         4.8601712362      2715.8875684991     -3103.4246500057      -462.2445358109       758.4913670830       700.1437305683 
  193000       307.0837271461     13534.1012664418         0.6565350154       666.9447791141      -249.3288392146       264.8800037316       318.9948223822        11.8271767773      2729.1123349367     -3103.5633859785      -470.5797910638       957.2075861192      1470.5712790209 
  194000       297.9644436929     13105.9952509564         0.6779806656       667.2456491499      -221.8179345609       275.4973255670       332.9584213326        17.5697702483      2739.4309968351     -3103.0869667854      -484.1874817583       638.9132744920      -148.2303317129 
  195000       313.9577982052     13210.2497857766         0.6726300810       690.4999474328      -246.2844612935       257.5589561649       334.5956859381         8.1942890124      2729.8657961474     -3103.2623362049      -473.2368523513       848.7750944948       821.5345011586 
  196000       301.0043748103     13601.2132337825         0.6532954988       653.9109244760      -244.2231779181       255.4480597766       328.0802363007        14.8864162207      2729.5907829181     -3102.7764707929      -469.4522023413       599.9225368300      -272.1741145930 
  197000       298.4431889261     13219.5670562354         0.6721560052       575.7255105481      -314.7665488137       232.7165186391       308.2962035306        15.0050536294      2703.0045309808     -3104.1222959121      -469.6665596815       488.9298039067      -450.1996175738 
  198000       298.9416727911     13415.9699869597         0.6623159855       623.8666049205      -268.1128260416       240.3127791025       332.1225748321         3.4664456152      2698.2248498825     -3103.1993673606      -439.0401081133       938.5293092354      1608.2268308183 
  199000       302.3931427870     13340.2366838390         0.6660759921       649.9336782051      -252.3442173846       263.1105701039       321.3494668451        12.7705574644      2726.4517945347     -3103.6546213424      -472.3719849904       540.9965906622      -559.9333508511 
  200000       291.9299244376     12774.2040624388         0.6955902176       580.9627955434      -290.0950447686       252.7375973598       312.7244161748        14.8807650181      2732.5587966694     -3102.1365094502      -500.8601105406       397.4406372860      -985.0964841001 
  201000       290.1193617605     13193.0903812133         0.6735049277       590.3123353439      -275.3431646007       268.2845523612       299.9809332363        15.0098802241      2723.1558517183     -3101.8381386327      -479.9362435079       595.3917208427        26.3990773024 
  202000       298.1991630313     13105.3807728291         0.6780124544       643.0796693286      -246.6842677988       266.4336126784       322.1282130460        12.7728846729      2734.1277461037     -3102.5214823388      -479.6252419609       336.7722046916     -1602.6254953518 
  203000       304.1839959627     13460.8647088500         0.6601070270       699.6963937087      -207.9250332184       263.5667029590       357.0470510614        10.4501152429      2733.5446391375     -3103.1421146584      -469.3914269607       900.1483500861      1021.0839518661 
  204000       306.9988987012     13354.5153653243         0.6653638219       662.7335918990      -253.2869160912       258.8610163417       330.6129979631        11.2090555952      2704.5412783960     -3103.8294958438      -454.6817685434       822.3654381355       819.6256008199 
  205000       290.3416959087     13622.1128157933         0.6522931871       657.5057944062      -208.8131041375       269.6230918632       338.8574011437        19.7441742649      2726.9072232583     -3103.6110969086      -460.3338977591       493.7998950112      -824.0317929722 
  206000       298.7130865181     13522.7254555647         0.6570873167       656.5187862633      -234.7785910668       267.1714883225       326.7943265557        14.7895964240      2720.5968666279     -3103.7493158812      -460.3815531158       819.2590884033       825.1919785716 
  207000       304.4691043918     13475.2369272565         0.6594029798       646.7110174726      -261.7611133792       268.3998113853       302.0252925487         2.0724196223      2721.9994146980     -3102.5959144767      -453.6621371567        99.4174574251     -2784.8899544214 
  208000       292.7992617369     14156.7045548405         0.6276610032       649.9761485397      -223.6756124602       253.9580902341       319.1528417363         9.9876824383      2733.5000621344     -3103.8729418220      -436.4013471814       655.7170608868        27.8062778505 
  209000       313.8331780195     13242.0514758412         0.6710147140       684.4366718124      -251.9758963427       254.2655206609       320.6683454195        12.7419903293      2725.8147691749     -3102.9533420387      -462.5131798886       525.6157318787      -822.3876896970 
  210000       299.8864351526     13714.1819474921         0.6479140657       650.8843293639      -243.9140748975       262.6643255031       299.2189577185        11.7624609072      2741.8836275143     -3103.8598904000      -455.5835561406       964.2003073918      1566.5228950444 
Loop time of 198.795 on 24 procs for 100000 steps with 1002 atoms

Performance: 43.462 ns/day, 0.552 hours/ns, 503.032 timesteps/s
99.7% CPU use with 24 MPI tasks x no OpenMP threads

MPI task timing breakdown:
Section |  min time  |  avg time  |  max time  |%varavg| %total
---------------------------------------------------------------
Pair    | 83.467     | 108.35     | 132.92     | 166.2 | 54.50
Bond    | 2.8075     | 2.9434     | 3.1316     |   4.3 |  1.48
Kspace  | 38.765     | 63.442     | 88.152     | 217.5 | 31.91
Neigh   | 4.6178     | 4.6238     | 4.6281     |   0.1 |  2.33
Comm    | 14.508     | 15.125     | 15.629     |   7.2 |  7.61
Output  | 0.10625    | 0.10686    | 0.12054    |   0.9 |  0.05
Modify  | 2.2477     | 3.0646     | 3.7963     |  30.0 |  1.54
Other   |            | 1.136      |            |       |  0.57

Nlocal:    41.75 ave 56 max 29 min
Histogram: 1 0 3 7 3 3 3 3 0 1
Nghost:    4846.04 ave 4947 max 4711 min
Histogram: 2 0 3 1 4 1 5 2 2 4
Neighs:    26155 ave 37859 max 17778 min
Histogram: 3 4 3 2 4 1 3 2 1 1

Total # of neighbors = 627720
Ave neighs/atom = 626.467
Ave special neighs/atom = 5
Neighbor list builds = 4005
Dangerous builds = 0
unfix equil
undump equil

# WRITE RESTART FILES, CLEANUP, AND EXIT
write_restart   charges.end.restart
PPPM initialization ...
WARNING: Using 12-bit tables for long-range coulomb (../kspace.cpp:321)
  G vector (1/distance) = 0.182291
  grid = 8 8 8
  stencil order = 5
  estimated absolute RMS force accuracy = 0.00910761
  estimated relative force accuracy = 2.74273e-05
  using double precision FFTs
  3d grid and FFT values/proc = 567 32
write_data      charges.end.data pair ii
PPPM initialization ...
WARNING: Using 12-bit tables for long-range coulomb (../kspace.cpp:321)
  G vector (1/distance) = 0.182291
  grid = 8 8 8
  stencil order = 5
  estimated absolute RMS force accuracy = 0.00910761
  estimated relative force accuracy = 2.74273e-05
  using double precision FFTs
  3d grid and FFT values/proc = 567 32
unfix		averages
Total wall time: 0:08:21
