
#===========================================================
# GENERAL PROCEDURES
#===========================================================
units		real	# g/mol, angstroms, fs, kcal/mol, K, atm, charge*angstrom
dimension	3	# 3 dimensional simulation
newton		on	# use Newton's 3rd law
boundary	p p p	# periodic boundary conditions
atom_style	full    # molecular + charge

#===========================================================
# FORCE FIELD DEFINITION
#===========================================================
special_bonds  lj   0.0 0.0 0.0  coul 0.0 0.0 0.0     # NO     1-4 LJ/COUL interactions
pair_style     hybrid lj/cut/coul/long 14.0 14.0 # outer_LJ outer_Coul (cutoff values, see LAMMPS Doc)
kspace_style   pppm 0.0001          # long-range electrostatics sum method
bond_style     harmonic             # parameters needed: k_bond, r0
angle_style    harmonic             # parameters needed: k_theta, theta0
dihedral_style hybrid opls            # parameters needed: V1, V2, V3, V4
pair_modify    shift yes mix arithmetic       # using Lorenz-Berthelot mixing rules

#===========================================================
# SETUP SIMULATIONS
#===========================================================

# READ IN COEFFICIENTS/COORDINATES/TOPOLOGY
read_data ${data_name}
read_data md-5.data
  orthogonal box = (-11.1463 -11.1463 -11.1463) to (11.1463 11.1463 11.1463)
  4 by 4 by 4 MPI processor grid
  reading atoms ...
  1002 atoms
  reading velocities ...
  1002 velocities
  scanning bonds ...
  1 = max bonds/atom
  scanning angles ...
  6 = max angles/atom
  scanning dihedrals ...
  3 = max dihedrals/atom
  reading bonds ...
  835 bonds
  reading angles ...
  1169 angles
  reading dihedrals ...
  501 dihedrals
  4 = max # of 1-2 neighbors
  3 = max # of 1-3 neighbors
  4 = max # of 1-4 neighbors
  5 = max # of special neighbors
include ${settings_name}
include md-5.in.settings
     # Non-bonded interactions (pair-wise)
     pair_coeff           1          1          lj/cut/coul/long     0.021642             2.424227
     pair_coeff           1          2          lj/cut/coul/long     0.004553             2.349992
     pair_coeff           1          3          lj/cut/coul/long     0.042621             3.077981
     pair_coeff           1          4          lj/cut/coul/long     0.056196             2.691933
     pair_coeff           2          2          lj/cut/coul/long     0.001000             2.261765
     pair_coeff           2          3          lj/cut/coul/long     0.007756             3.056775
     pair_coeff           2          4          lj/cut/coul/long     0.010790             2.649563
     pair_coeff           3          3          lj/cut/coul/long     0.199655             3.382504
     pair_coeff           3          4          lj/cut/coul/long     0.171644             3.176814
     pair_coeff           4          4          lj/cut/coul/long     0.186531             2.869345

     # Stretching interactions
     bond_coeff           1           366.904251           1.096103
     bond_coeff           2           612.219900           0.957501
     bond_coeff           3           368.709924           1.411527

     # Bending interactions
     angle_coeff          1           40.926667            108.205025
     angle_coeff          2           61.328715            112.232133
     angle_coeff          3           49.873049            108.741688

     # Dihedral interactions
     dihedral_coeff       1          opls                  0.105414            -0.205941             0.372587            -0.070860

# SET RUN PARAMETERS
timestep	1.0		# fs
run_style	verlet 		# Velocity-Verlet integrator
neigh_modify every 1 delay 0 check no one 10000 # More relaxed rebuild criteria can be used

#===========================================================
# RUN CONSTRAINED RELAXATION
#===========================================================

# SET OUTPUTS
thermo_style    custom step temp vol density etotal pe ebond eangle edihed ecoul elong evdwl enthalpy press
thermo_modify   format float %20.10f
thermo ${thermo_freq}
thermo 1000

# DECLARE RELEVANT OUTPUT VARIABLES
variable        my_step equal   step
variable        my_temp equal   temp
variable        my_rho  equal   density
variable        my_pe   equal   pe
variable        my_ebon equal   ebond
variable        my_eang equal   eangle
variable        my_edih equal   edihed
variable        my_evdw equal   evdwl
variable        my_eel  equal   (ecoul+elong)
variable        my_ent  equal   enthalpy
variable        my_P    equal   press
variable        my_vol  equal   vol

fix  averages all ave/time ${dump4avg} $(v_avg_freq/v_dump4avg) ${avg_freq} v_my_temp v_my_rho v_my_vol v_my_pe v_my_edih v_my_evdw v_my_eel v_my_ent v_my_P file thermo.avg
fix  averages all ave/time 100 $(v_avg_freq/v_dump4avg) ${avg_freq} v_my_temp v_my_rho v_my_vol v_my_pe v_my_edih v_my_evdw v_my_eel v_my_ent v_my_P file thermo.avg
fix  averages all ave/time 100 10 ${avg_freq} v_my_temp v_my_rho v_my_vol v_my_pe v_my_edih v_my_evdw v_my_eel v_my_ent v_my_P file thermo.avg
fix  averages all ave/time 100 10 1000 v_my_temp v_my_rho v_my_vol v_my_pe v_my_edih v_my_evdw v_my_eel v_my_ent v_my_P file thermo.avg

# INITIALIZE VELOCITIES AND CREATE THE CONSTRAINED RELAXATION FIX
velocity        all create ${ANNEAL_TEMP} ${vseed} mom yes rot yes     # DRAW VELOCITIES
velocity        all create 100.0 ${vseed} mom yes rot yes     
velocity        all create 100.0 34986 mom yes rot yes     

fix relax all nve/limit 0.01
run             10000
PPPM initialization ...
WARNING: Using 12-bit tables for long-range coulomb (../kspace.cpp:321)
  G vector (1/distance) = 0.186686
  grid = 8 8 8
  stencil order = 5
  estimated absolute RMS force accuracy = 0.00723343
  estimated relative force accuracy = 2.17833e-05
  using double precision FFTs
  3d grid and FFT values/proc = 343 8
Neighbor list info ...
  update every 1 steps, delay 0 steps, check no
  max neighbors/atom: 10000, page size: 100000
  master list distance cutoff = 16
  ghost atom cutoff = 16
  binsize = 8, bins = 3 3 3
  1 neighbor lists, perpetual/occasional/extra = 1 0 0
  (1) pair lj/cut/coul/long, perpetual
      attributes: half, newton on
      pair build: half/bin/newton
      stencil: half/bin/3d/newton
      bin: standard
Per MPI rank memory allocation (min/avg/max) = 8.558 | 8.671 | 9.162 Mbytes
Step Temp Volume Density TotEng PotEng E_bond E_angle E_dihed E_coul E_long E_vdwl Enthalpy Press 
       0       100.0000000000     11078.5243964894         0.8020573016      -199.5674758109      -497.9465618159       259.3881103578       344.4208285485        15.9256716942      2501.9973226747     -3106.7378326978      -512.9406623934      -866.0337163486     -4124.9657561937 
    1000        23.4215157224     11078.5243964894         0.8020573016     -1363.5445331987     -1433.4294377398         6.8585757119        16.9283230654       -34.5740559435      2202.8773688302     -3107.3419979141      -518.1776514897     -1909.7337146307     -3380.5338256782 
    2000        19.3780539414     11078.5243964894         0.8020573016     -1413.1393298979     -1470.9593901337         6.2440684104        17.1279547132       -36.1306905853      2173.4435759241     -3107.4609865209      -524.1833120752     -1892.3829051417     -2966.1867571291 
    3000        16.7690427804     11078.5243964894         0.8020573016     -1439.5900266399     -1489.6253432199         5.9991655750        17.0607070577       -36.5674401751      2177.4720138188     -3107.3626745421      -546.2271149543     -1917.6850710283     -2959.0781443293 
    4000        15.0523565700     11078.5243964894         0.8020573016     -1453.5167926511     -1498.4298766067         5.6735334085        17.2088996994       -37.5499110130      2161.7046721824     -3107.3326894977      -538.1343813864     -1877.9620048070     -2627.0227342815 
    5000        14.4642422503     11078.5243964894         0.8020573016     -1465.1425579855     -1508.3008318096         6.1074635135        17.2406185150       -36.7170583127      2157.8920530583     -3107.7643094488      -545.0595991349     -1859.1772748592     -2438.8027704810 
    6000        13.2327838898     11078.5243964894         0.8020573016     -1474.0553472781     -1513.5392069014         5.8604291379        16.2605661154       -37.1985857743      2154.6487954101     -3107.5498596663      -545.5605521241     -1856.8593149493     -2369.2921890613 
    7000        12.8433402924     11078.5243964894         0.8020573016     -1480.4649507980     -1518.7867921750         6.0161389638        16.2613253401       -36.3291235852      2157.3152871905     -3107.4541163026      -554.5963037816     -1871.6213449834     -2420.9879408583 
    8000        12.6804025870     11078.5243964894         0.8020573016     -1487.0347388552     -1524.8704081960         5.8195495000        16.8689683396       -37.3398266126      2158.3531790445     -3107.6472724283      -560.9250060392     -1903.8702404676     -2579.9238814103 
    9000        12.6497812813     11078.5243964894         0.8020573016     -1493.4223887804     -1531.1666905493         6.0953998027        16.6157897891       -36.9459292715      2150.0342061280     -3107.8151472426      -559.1510097550     -1885.2771030676     -2425.3100600172 
   10000        12.6024901494     11078.5243964894         0.8020573016     -1497.8088274926     -1535.4120224143         5.9940463750        16.6122073021       -36.3175257383      2150.7151882771     -3107.6381869343      -564.7777516958     -1888.5047352374     -2418.1378478109 
Loop time of 12.5005 on 64 procs for 10000 steps with 1002 atoms

Performance: 69.117 ns/day, 0.347 hours/ns, 799.967 timesteps/s
99.0% CPU use with 64 MPI tasks x no OpenMP threads

MPI task timing breakdown:
Section |  min time  |  avg time  |  max time  |%varavg| %total
---------------------------------------------------------------
Pair    | 0.58925    | 1.9962     | 3.2103     |  43.8 | 15.97
Bond    | 0.01656    | 0.049145   | 0.072172   |   5.6 |  0.39
Kspace  | 1.2273     | 2.4288     | 3.8429     |  39.8 | 19.43
Neigh   | 4.4864     | 4.5642     | 4.6604     |   2.1 | 36.51
Comm    | 3.2455     | 3.3506     | 3.4445     |   2.7 | 26.80
Output  | 0.0019698  | 0.0019917  | 0.0028417  |   0.2 |  0.02
Modify  | 0.0084858  | 0.01014    | 0.011524   |   0.6 |  0.08
Other   |            | 0.09952    |            |       |  0.80

Nlocal:    15.6562 ave 26 max 0 min
Histogram: 1 4 2 3 6 8 19 11 8 2
Nghost:    4814.56 ave 5171 max 4485 min
Histogram: 2 4 9 13 8 8 10 3 4 3
Neighs:    12099.4 ave 21415 max 0 min
Histogram: 2 3 4 3 11 12 7 16 3 3

Total # of neighbors = 774360
Ave neighs/atom = 772.814
Ave special neighs/atom = 5
Neighbor list builds = 10000
Dangerous builds not checked
unfix relax

#===========================================================
# RUN RAMPED ANNEAL
#===========================================================

# REINITIALIZE THE VELOCITIES AND CREATE THE ANNEALING FIX
velocity        all create ${ANNEAL_TEMP} ${vseed} mom yes rot yes     # DRAW VELOCITIES
velocity        all create 100.0 ${vseed} mom yes rot yes     
velocity        all create 100.0 34986 mom yes rot yes     

fix mom all momentum 1000 linear 1 1 1 angular # Zero out system linear and angular momentum every ps
fix anneal all npt temp ${ANNEAL_TEMP} ${FINAL_TEMP} 100.0 iso ${pressure} ${pressure} 1000.0 # NPT, nose-hoover 100 fs T relaxation
fix anneal all npt temp 100.0 ${FINAL_TEMP} 100.0 iso ${pressure} ${pressure} 1000.0 
fix anneal all npt temp 100.0 298.0 100.0 iso ${pressure} ${pressure} 1000.0 
fix anneal all npt temp 100.0 298.0 100.0 iso 1.0 ${pressure} 1000.0 
fix anneal all npt temp 100.0 298.0 100.0 iso 1.0 1.0 1000.0 

# CREATE COORDINATE DUMPS FOR ANNEAL
dump anneal all custom ${coords_freq} anneal.lammpstrj id type x y z mol
dump anneal all custom 1000 anneal.lammpstrj id type x y z mol
dump_modify anneal sort id format float %20.10g

# RUN RAMPED ANNEAL
run ${nSteps_ramp}
run 50000
PPPM initialization ...
WARNING: Using 12-bit tables for long-range coulomb (../kspace.cpp:321)
  G vector (1/distance) = 0.186686
  grid = 8 8 8
  stencil order = 5
  estimated absolute RMS force accuracy = 0.00723343
  estimated relative force accuracy = 2.17833e-05
  using double precision FFTs
  3d grid and FFT values/proc = 343 8
Per MPI rank memory allocation (min/avg/max) = 9.831 | 10.36 | 10.55 Mbytes
Step Temp Volume Density TotEng PotEng E_bond E_angle E_dihed E_coul E_long E_vdwl Enthalpy Press 
   10000       100.0000000000     11078.5243964894         0.8020573016     -1237.0329364093     -1535.4120224143         5.9940463750        16.6122073021       -36.3175257383      2150.7151882771     -3107.6381869343      -564.7777516958     -1453.8782500986     -1342.1227347358 
   11000        95.0121935836      9867.2553311915         0.9005149948      -989.8699370107     -1273.3664518189       104.7524273115       105.2145616643       -15.2732654536      2213.7886360694     -3108.1848507726      -573.6639606379     -1637.0097099703     -4497.0305344211 
   12000       109.8202933774      9432.4087203074         0.9420299360      -955.9598371386     -1283.6406247662        97.1511281713       104.8663481196       -19.9329633836      2229.0249320906     -3107.7047518168      -587.0453179473      -799.9253407283      1134.2848281308 
   13000       112.8848312988      9302.8672518023         0.9551476059      -960.6683668945     -1297.4930947620        95.1310132579       106.4176226921       -17.6496578555      2224.6156854417     -3107.3730421195      -598.6347161787     -1042.2491731729      -601.3056436818 
   14000       116.0100624899      9400.1681611860         0.9452608965      -926.8101775622     -1272.9599416935        94.8756704098       120.8630051732       -13.3723923053      2235.5369081733     -3107.8982848367      -602.9648483077     -1226.5848465178     -2186.6708717307 
   15000       120.5829188795      9323.1352778647         0.9530711632      -891.2424713663     -1251.0366825969       109.1535148821       129.8581359754       -11.8712924965      2233.3891416420     -3107.3902321829      -604.1759504171     -1013.6305203753      -900.1215026256 
   16000       124.0313499119      9454.2320096471         0.9398554398      -865.5388496171     -1235.6224578438       101.0395621357       136.7773018945       -11.2850558947      2241.1539328931     -3107.3436842171      -595.9645146553      -905.7148171035      -291.3829921695 
   17000       127.5066639161      9367.6505358699         0.9485421504      -872.7154325592     -1253.1686509477       100.4428344301       134.4158825782        -8.0599913703      2239.4786586656     -3107.4185739953      -612.0274612561     -1123.0879730995     -1832.6525096805 
   18000       128.7690417717      9376.1812573545         0.9476791393      -836.2587352588     -1220.4786251545       111.0837252941       130.8282830696        -7.5771670584      2254.6487872016     -3107.9134079599      -601.5488457016      -669.5060858589      1219.4692649987 
   19000       132.2728804660      9398.0573672857         0.9454732011      -839.5854044706     -1234.2600162374       103.1071506027       145.2890432116       -13.1074696035      2229.1704416370     -3107.2333430890      -591.4858389961     -1025.8847693672     -1359.2439019297 
   20000       138.1897572613      9377.5188704254         0.9475439619      -806.8647408236     -1219.1940754924       107.6288049715       145.6752954980        -7.1494386074      2254.6915372674     -3107.5293670918      -612.5109075303      -817.4802133009       -77.6203313797 
   21000       147.1450462021      9436.6855681726         0.9416029939      -754.6899619422     -1193.7400059017       127.1405564228       146.8783929407       -10.2915349493      2250.6216073321     -3108.0835753612      -600.0054522868      -759.6441917626       -35.9981991428 
   22000       148.2518865151      9373.3011352877         0.9479703314      -741.9407672028     -1184.2933911718       119.6221041605       156.8998758334        -1.1622618366      2249.0889610590     -3107.5702177913      -601.1718525967      -892.7807072185     -1103.4378877080 
   23000       155.1865329998      9430.5811891799         0.9422124899      -715.3106832951     -1178.3548420628       123.1095245313       162.1487947906       -13.8427888199      2239.8078890473     -3108.1046582763      -581.4736033357      -651.7127055873       462.4118536439 
   24000       156.3699125648      9502.6631383004         0.9350653869      -675.4785671648     -1142.0536830624       133.3682258911       167.3722260750        -3.9857936281      2251.6141182917     -3106.6691294635      -583.7533302287      -843.9305275654     -1215.4996720618 
   25000       159.4084807944      9437.3429072440         0.9415374085      -673.3122086412     -1148.9537766499       140.8246381602       155.0570569936        -5.5271396316      2256.3459044882     -3108.0960741955      -587.5581624648      -673.3596272000        -0.3445265742 
   26000       163.1678954410      9645.0189286525         0.9212642763      -634.6067150944     -1121.4655901647       134.6366302563       169.0133116434       -11.1243474407      2279.2478750731     -3107.7096912035      -585.5293684933      -452.7348832790      1292.9641022974 
   27000       174.0533313935      9543.3215452897         0.9310816304      -617.4166000810     -1136.7553394543       128.4568892902       179.8256815373        -4.6547879024      2243.1111830621     -3106.8792667261      -576.6150387155      -297.6770871814      2297.3166636329 
   28000       176.1080137053      9609.6492681560         0.9246551186      -561.5513650940     -1087.0208467693       151.3625869729       182.6668154764        -4.5529491864      2276.0060819020     -3107.7302534295      -584.7731285048      -754.4746073664     -1376.5789541476 
   29000       169.7056854347      9570.1411926616         0.9284723396      -598.1451421619     -1104.5114152605       138.7785631802       168.0405736707        -1.9624363897      2278.9783882490     -3105.9086287112      -582.4378752595      -334.3433371057      1890.0945432984 
   30000       182.8490100004      9663.2700713612         0.9195242726      -511.1540478903     -1056.7372526988       160.3685687703       191.7284439811        -3.9158180252      2274.6673472985     -3107.2335806095      -572.3522141140      -574.6155547785      -450.3087369699 
   31000       183.0657471419      9523.3954874991         0.9330297576      -513.0638391114     -1059.2937422218       153.7281874531       201.5116330888        -3.9907343900      2268.6419580307     -3107.0955640543      -572.0892223500      -424.4446225388       638.0580568037 
   32000       191.2552917096      9573.0340307922         0.9281917681      -478.4606596852     -1049.1264510247       155.6882311939       210.7444780216        -1.9319436588      2266.2433044779     -3107.7689108754      -572.1016101838      -601.0350539280      -877.9590572624 
   33000       189.0152845208      9551.7479890450         0.9302602407      -478.0854064216     -1042.0674847845       148.1574503507       203.8585017336        -1.7230490110      2289.5984233852     -3107.9851344018      -573.9736768411      -388.2980831822       644.5495053553 
   34000       190.8723264850      9858.0102659945         0.9013595182      -416.8523160802      -986.3754192828       175.5295162338       207.9644345148        -3.4044033787      2313.0658455069     -3106.4239342074      -573.1068779523      -265.4779224962      1052.9003277112 
   35000       188.3146005617      9863.2357071160         0.9008819872      -408.1780794102      -970.0694633802       176.9971205722       218.6860567187        -5.7866641877      2305.6692753171     -3107.1544292442      -558.4808225563      -248.9024117766      1107.2715285334 
   36000       209.3808144139      9805.3649876652         0.9061989426      -333.0439210549      -957.7924813728       182.5570866910       220.1457251020         2.0243790571      2310.6126674096     -3107.1092176660      -566.0231219665      -443.7689362167      -774.2943582463 
   37000       200.7438885495      9680.5903789035         0.9178790793      -373.3059010670      -972.2836809317       173.9759750909       232.3554195079        -3.7876545206      2304.0076076694     -3107.6442154268      -571.1908132526      -337.6879499698       252.2848665925 
   38000       213.6854458933      9801.6919395426         0.9065385281      -291.4596441787      -929.0523245609       182.9603126737       230.2099933746         2.7937558649      2326.9855087641     -3106.6044970484      -565.3973981899      -441.0536250103     -1046.4950564082 
   39000       203.4825875273     10267.6367657045         0.8653998565      -287.1508926428      -894.3003774860       191.1083251163       238.1060518627         0.2886479571      2325.6230815659     -3107.2556241944      -542.1708597935      -889.6429601214     -4023.5087255005 
   40000       224.4354852725     10049.7297622641         0.8841642108      -224.1271025774      -893.7956522042       183.3787083706       238.6326282935        -2.1448769972      2364.4862660329     -3105.3136673782      -572.8347105259      -182.2778035479       285.5340562576 
   41000       216.6980310934      9963.0802696164         0.8918538387      -238.4994610996      -885.0810656668       188.3078171624       226.6603631734        10.5091458246      2361.9596718302     -3106.6510094160      -565.8670542414       163.1703103571      2764.3920190216 
   42000       224.9442117667      9876.8803609714         0.8996374421      -211.7222451638      -882.9087282544       194.7678009332       256.1103477287        10.5203288457      2322.5793552633     -3105.8812339440      -561.0053270812       -92.3328976610       828.8384618386 
   43000       236.9878347746     10173.5887431015         0.8733998993      -150.4135732102      -857.5357085537       206.2073005744       232.4831469036        10.3561230299      2349.0301594527     -3107.1709418081      -548.4414967063      -110.6596213332       267.9354885498 
   44000       229.0771403875      9982.3171390053         0.8901351520      -167.8473214068      -851.3655991415       209.7786210549       245.2254799882        12.2786881678      2351.8479260054     -3106.6354125554      -563.8609018023      -345.8050716170     -1222.3896214632 
   45000       230.5602860399     10222.4724580141         0.8692233136      -126.7672856145      -814.7109597907       208.9570192948       253.2685739072         3.6478357204      2380.5491202333     -3106.3094183092      -554.8240906373       189.4537062812      2121.0888357067 
   46000       233.4007618116     10481.5260318786         0.8477402390      -134.3195775054      -830.7386373276       214.1995681499       235.0746980948         1.2934567449      2360.4531792877     -3106.9978769360      -534.7616626690      -497.5604954960     -2376.2621906396 
   47000       247.0478987315     10328.2536574625         0.8603207936       -45.2729126975      -782.4121749272       216.4573501878       270.8856986348         6.4425341313      2356.7916083604     -3106.6205692014      -526.3687970401        38.8332507521       558.3738074931 
   48000       247.9917365246     10233.1766290331         0.8683140833         0.1821458382      -739.7733309719       208.7832669584       292.4644348534         4.3504280044      2399.5366496667     -3106.3184856970      -538.5896247579        50.1122014573       334.5612900835 
   49000       248.2882462094     10605.4831118005         0.8378318357         0.1368356007      -740.7033640967       224.9454437385       281.0086655619         7.9257484092      2361.9213115561     -3105.6421722106      -510.8623611518       153.9150188085       994.2334708358 
   50000       244.9136733560     10548.9880924927         0.8423188372        15.0057767988      -715.7654032620       240.9570680425       273.5583922789        10.8492747615      2386.8576544423     -3106.3196283292      -521.6681644580      -148.1395384450     -1060.4444315282 
   51000       252.3379857528     10559.8835192470         0.8414497534        16.1551282090      -736.7686473237       228.0711246273       267.6213339616         4.1479016330      2386.8095066605     -3106.0754980967      -517.3430161094      -134.1534440735      -975.9975612931 
   52000       258.9012687538     10972.0456583293         0.8098409048       136.6213272328      -635.8859121301       262.0875466753       294.9361515937        14.3973414091      2384.7236897028     -3106.4868095300      -485.5438319809      -492.3763524486     -3930.8416386048 
   53000       272.0718698209     10648.0176807085         0.8344850328       119.8261906780      -691.9793677704       232.2512841552       303.4158893433         3.4012314916      2382.1119060600     -3107.4339843702      -505.7256944503       154.1651357480       221.1272658279 
   54000       270.5616533011     10519.8520846341         0.8446517415       178.9427207456      -628.3566674544       244.2247607507       315.7729545756        11.3880696576      2432.5039174270     -3107.0398301428      -525.2065397223       -50.0900818782     -1492.8362236062 
   55000       270.0316339067     10397.7640667427         0.8545694369       139.4939416799      -666.2239794952       242.5548378541       315.2882913797         9.3997914244      2386.9386192525     -3105.9032345711      -514.5022848347        90.0434852161      -326.1027466082 
   56000       281.1580613474     10824.9628659975         0.8208445141       192.8336520735      -646.0832016042       245.4962231266       318.5232871515         8.6045694555      2378.7586102545     -3107.1422907627      -490.3236008297       445.0664708898      1597.7149124030 
   57000       289.0508331770     11075.6891531478         0.8022626187       254.1478125509      -608.3194215724       246.0631034830       332.0371220806         3.0852056231      2387.3530703802     -3106.2944933044      -470.5634298350       392.0867147764       853.9650907193 
   58000       289.5317015482     10996.6254021473         0.8080307420       291.3675752914      -572.5344694829       269.6962027749       340.8977468875         9.1182272381      2424.4869151694     -3106.0010056278      -510.7325559250       531.9566408908      1500.1703059974 
   59000       289.1814762429     10775.4878713086         0.8246133715       283.3202772212      -579.5367684881       269.7018297221       316.7823088834        11.0018202648      2415.7062099564     -3105.5101648739      -487.2187724410       428.3687034372       922.9967870278 
   60000       293.4742422997     11173.4225657503         0.7952452645       298.7919442813      -576.8738175525       259.4198612024       336.5302983612        15.5866273468      2391.5747127009     -3106.2908115339      -473.6945056300       826.5453388635      3238.6865854596 
Loop time of 71.1385 on 64 procs for 50000 steps with 1002 atoms

Performance: 60.727 ns/day, 0.395 hours/ns, 702.854 timesteps/s
99.3% CPU use with 64 MPI tasks x no OpenMP threads

MPI task timing breakdown:
Section |  min time  |  avg time  |  max time  |%varavg| %total
---------------------------------------------------------------
Pair    | 7.5145     | 12.181     | 16.949     |  68.2 | 17.12
Bond    | 0.22374    | 0.28717    | 0.34038    |   4.6 |  0.40
Kspace  | 8.8237     | 13.613     | 18.281     |  64.6 | 19.14
Neigh   | 24.54      | 24.839     | 25.082     |   2.8 | 34.92
Comm    | 18.011     | 18.263     | 18.578     |   3.5 | 25.67
Output  | 0.02998    | 0.030029   | 0.030509   |   0.0 |  0.04
Modify  | 1.1336     | 1.1836     | 1.2266     |   2.0 |  1.66
Other   |            | 0.7421     |            |       |  1.04

Nlocal:    15.6562 ave 23 max 9 min
Histogram: 4 7 4 8 4 17 9 7 2 2
Nghost:    4729.36 ave 4850 max 4595 min
Histogram: 3 3 6 6 12 9 9 6 6 4
Neighs:    12036.9 ave 21316 max 5907 min
Histogram: 6 7 10 11 10 10 2 6 1 1

Total # of neighbors = 770359
Ave neighs/atom = 768.821
Ave special neighs/atom = 5
Neighbor list builds = 50000
Dangerous builds not checked
unfix anneal

# RUN EQUILIBRATION PHASE AT FINAL TEMP
fix anneal all npt temp ${FINAL_TEMP} ${FINAL_TEMP} 100.0 iso ${pressure} ${pressure} 1000.0 # NPT, nose-hoover 100 fs T relaxation
fix anneal all npt temp 298.0 ${FINAL_TEMP} 100.0 iso ${pressure} ${pressure} 1000.0 
fix anneal all npt temp 298.0 298.0 100.0 iso ${pressure} ${pressure} 1000.0 
fix anneal all npt temp 298.0 298.0 100.0 iso 1.0 ${pressure} 1000.0 
fix anneal all npt temp 298.0 298.0 100.0 iso 1.0 1.0 1000.0 
run ${nSteps_ramp}
run 50000
PPPM initialization ...
WARNING: Using 12-bit tables for long-range coulomb (../kspace.cpp:321)
  G vector (1/distance) = 0.186512
  grid = 8 8 8
  stencil order = 5
  estimated absolute RMS force accuracy = 0.00729498
  estimated relative force accuracy = 2.19686e-05
  using double precision FFTs
  3d grid and FFT values/proc = 343 8
Per MPI rank memory allocation (min/avg/max) = 10.43 | 10.54 | 10.55 Mbytes
Step Temp Volume Density TotEng PotEng E_bond E_angle E_dihed E_coul E_long E_vdwl Enthalpy Press 
   60000       293.4742422997     11173.4225657503         0.7952452645       298.7916574724      -576.8741043615       259.4198612024       336.5302983612        15.5866273468      2388.6862244470     -3103.4026100889      -473.6945056300       826.5433973604      3238.6764310283 
   61000       305.1054932039     11161.2887845237         0.7961098001       349.2551658252      -561.1158161475       252.4402225849       342.8369331430        15.7389036105      2391.3628284583     -3101.5285017640      -461.9662021802       387.9873125618       237.9476028749 
   62000       306.3762244545     10921.1392854058         0.8136157915       326.3415133111      -587.8210649528       266.9887587342       334.7745291889         5.6071676050      2385.3377645774     -3103.1925133660      -477.3367716923        95.3812731553     -1450.0847559617 
   63000       300.2509613587     11295.4741355409         0.7866523598       338.7958247874      -557.0902494358       256.7979875555       328.2683852153        17.1383206338      2411.8905469096     -3102.7464924701      -468.4389972799       -40.6498121545     -2303.3991837412 
   64000       313.0379789021     11156.3956358307         0.7964589706       432.2010841308      -501.8387761659       282.0075632566       325.1086322794        11.1239582310      2458.1716556458     -3103.1853881923      -475.0651973863       418.0485544305       -86.9829792227 
   65000       298.2793422396     10723.0280169604         0.8286475956       288.4139669943      -601.5892081218       258.4951385126       304.8659780774        16.2372976534      2429.8334798883     -3103.1969980803      -507.8241041732       140.3913388844      -946.5308658694 
   66000       305.1509616697     11335.4956070541         0.7838749792       384.1742837284      -526.3323666372       286.1675112964       318.2534240989        12.8841110417      2442.8180790151     -3102.8746152514      -483.5808768379       366.9221302892      -104.3582793087 
   67000       306.5192318629     11061.0974114583         0.8033209593       378.2416964529      -536.3475860092       262.2698082089       314.2773419546        10.2555518597      2480.7817451428     -3102.2060467242      -501.7259864511       302.4760664475      -469.6757444306 
   68000       293.0323203488     10889.5944051915         0.8159726665       320.8955895613      -553.4515695947       251.1520100159       326.8661309469        12.6274188017      2446.4809112328     -3103.4361992847      -487.1418413073       868.3498236352      3447.1503454337 
   69000       289.9299287115     10804.8660489534         0.8223712671       297.4031057680      -567.6871655763       255.4738366588       325.3705939432         4.8107320612      2458.8863168296     -3102.4170404060      -509.8116046631       666.8884694258      2344.7792538034 
   70000       301.4757033511     10999.2142747025         0.8078405568       356.2603974010      -543.2800507851       259.0369432193       310.9039579889        13.7197598122      2471.3292911710     -3102.6308055461      -495.6391974304       474.2308068803       735.4201666481 
   71000       301.7296716276     10894.4379615341         0.8156098933       297.9065200016      -602.3917164069       259.9816217403       311.8618222275        10.7356269989      2421.6202126612     -3103.0990528978      -503.4919471370       143.8626287086      -969.5356018992 
   72000       284.4342963729     11187.4516025856         0.7942480289       270.7929945372      -577.8994592651       263.0431016275       308.5091822604        10.4662271041      2431.1302458491     -3104.1152846547      -486.9329314515       343.0440984507       442.8304008221 
   73000       296.6388705238     11029.6800801140         0.8056091672       327.9400486807      -557.1683019236       266.1608209145       321.9274442369         4.7601895405      2435.6299403795     -3102.5378108877      -483.1088861073      -115.3883032318     -2756.0475185503 
   74000       305.1168999330     11274.4855302588         0.7881167934       395.5870898015      -514.8179274653       264.6737344978       348.7062137454        12.0772557391      2439.7027568778     -3103.4430293114      -476.5348590141       -25.7526879633     -2562.4761910639 
   75000       297.2013008411     10944.7657619322         0.8118594383       312.7486696763      -574.0378553684       263.9592405741       302.8899763969        10.6485091588      2448.7169536214     -3103.1095865227      -497.1429485969       343.0600995331       189.8996056083 
   76000       310.8788324841     11332.5255387158         0.7840804200       417.5977122494      -509.9997066997       273.0127509199       351.7343662499         5.6813375676      2431.6932040515     -3103.9232086124      -468.1981568762       610.2635877820      1165.7413578931 
   77000       288.8047072462     10763.7950729602         0.8255091558       277.2562288927      -584.4766169279       259.9191927861       304.8935596077        16.9619041292      2424.9451841561     -3102.8188538975      -488.3776037094       293.4133731077       102.9255724622 
   78000       294.7902675233     11126.4043058260         0.7986058334       340.1216570822      -539.4708487856       277.6807018222       311.4495712683        10.3546375853      2442.9768292550     -3102.8232551374      -479.1093335791       462.5793779355       754.6671496585 
   79000       302.1188536044     11229.7956485695         0.7912531681       352.5698594426      -548.8896145911       270.5010223936       336.4587909174        13.2168437189      2416.2195712104     -3103.5628221643      -481.7230206671       346.2552751619       -38.5564483151 
   80000       298.9474590458     10930.0486825568         0.8129525898       332.1726121325      -559.8240838034       266.3286426260       321.8500736910        11.7265709577      2446.8704031419     -3102.4479969461      -504.1517772739       332.3977658842         1.4124764067 
   81000       309.3311746081     11064.9576096057         0.8030407072       385.0174688709      -537.9620626535       277.0176735724       328.8150242297        11.1182948321      2451.4502217828     -3103.0850591682      -503.2782179023        67.6419466170     -1966.7437769352 
   82000       293.8070431720     10949.4446549564         0.8115125163       305.3021312713      -571.3566387636       251.9215662576       347.9540251625         8.8441053453      2413.0591339313     -3102.0684527593      -491.0670167009      -151.5744948898     -2861.0863010510 
   83000       294.0583050819     11060.8322457245         0.8033402176       334.8748698848      -542.5336131404       280.9141185844       320.7754158678        14.3890824599      2443.2961150406     -3103.0955895295      -498.8127555636       -23.2990909988     -2220.3953777122 
   84000       288.6034580813     11042.9707398570         0.8046395841       302.4610611110      -558.6712992907       269.6489572833       321.1169809547         5.6676502083      2431.5568805187     -3103.5126070695      -483.1491611862       360.3464588494       359.4241140421 
   85000       305.3942334107     10796.2754367382         0.8230256291       336.5146600837      -574.7178622792       263.9324102715       322.3339847979        10.1079841833      2417.2441764502     -3103.3996854242      -484.9367325580       385.9050413640       313.6841200909 
   86000       297.8178038821     11192.3020271252         0.7939038244       360.8583321641      -527.7677090195       270.8434724717       332.5943857144         9.6026393843      2446.7117369061     -3102.4305853598      -485.0893581361      -238.4392670019     -3671.5312353550 
   87000       295.5636324110     11010.1397522072         0.8070389281       329.0153757270      -552.8846892240       266.2743536159       321.5344270026        14.8770557375      2444.1430862765     -3103.6771198468      -496.0364920097        82.4064857010     -1535.8188991743 
   88000       286.9152169683     10957.2234037342         0.8109364075       269.5643947253      -586.5306072740       277.6869406775       304.2645513241         4.7063598000      2431.6390160769     -3103.4976102216      -501.3298649308       299.7686156600       189.0128073045 
   89000       302.0677767868     11049.8032849313         0.8041420426       342.6929822980      -558.6140891941       279.4596888955       314.7131490280        16.3416170845      2416.9740465776     -3102.9111397584      -483.1914510213       193.0621266656      -928.5188470097 
   90000       298.4428020420     10929.5306882440         0.8129911189       311.0155876792      -579.4753173014       246.7340470044       319.6572070048        17.0701683368      2423.3226940187     -3101.0587991260      -485.2006345401       607.3668540538      1859.2140136820 
   91000       298.5242435485     10807.7583651087         0.8221511884       312.4906968113      -578.2432125921       268.1085139325       314.3962724919        19.8644209397      2429.7233754541     -3101.7337598319      -508.6020355783       228.9754743326      -529.8514493282 
   92000       290.4021596916     11175.9761355985         0.7950635610       334.9587884764      -531.5405213503       292.1303625216       311.6198751740         8.8206395097      2445.3613861396     -3102.8630865480      -486.6096981473       227.2708415404      -660.7021835423 
   93000       291.4279134271     10990.0330757859         0.8085154360       279.2197954253      -590.3401490220       246.3600215166       322.3845526755         9.6322242603      2399.7838237039     -3103.8133396117      -464.6874315666       470.6501595361      1194.3618876700 
   94000       303.1753623679     11181.9538904438         0.7946385284       349.7734701358      -554.8384050899       265.0673702150       325.4823260324         7.9307243420      2429.8585277701     -3102.6878863440      -480.4894671055       333.5291052498       -99.6114242488 
   95000       322.6862797497     10950.9202808156         0.8114031657       363.0124618085      -599.8159103723       251.3493969639       330.6474181470        10.3914923900      2378.1126184098     -3103.3974385642      -466.9193977186       683.5099717919      2006.7725549522 
   96000       294.4806585226     11012.5584968501         0.8068616740       293.3444926515      -585.3242047098       258.5590848274       324.5924594707        14.5892350370      2401.1124453669     -3103.5562310613      -480.6211983504       165.2270304575      -797.7084815466 
   97000       298.8886909364     11153.6425237859         0.7966555647       351.7008466443      -540.1204975442       270.9165988026       327.8743242736        10.0933236695      2425.4114109957     -3102.4600135335      -471.9561417520       432.0111247630       493.7174978543 
   98000       298.6095670937     10990.1534428750         0.8085065809       319.2797411849      -571.7087558326       270.7890041547       315.9822034353        13.1155144562      2414.9194012552     -3102.9795753451      -483.5353037889        65.9807476129     -1580.3519578324 
   99000       311.3099148063     10695.6059763584         0.8307721323       405.9605844819      -522.9230939601       289.3691820652       324.3979982837        12.6223954922      2439.4048812831     -3103.4902819238      -485.2272691605       387.8534011190      -116.0832650394 
  100000       289.1103268862     11279.8616787745         0.7877411653       354.2666548237      -508.3780960854       269.9322978867       352.1940917844         6.4481231402      2455.7704740149     -3102.0757860733      -490.6472968383       389.6992455037       215.3888630428 
  101000       294.1866650571     10957.2003723852         0.8109381121       306.3686747208      -571.4228076252       280.5899554106       310.8362092714         6.9621384266      2423.0643003745     -3102.0538813080      -490.8215298002       188.0263955976      -740.5671367857 
  102000       296.8709123549     10936.8214321790         0.8124491598       285.5318689720      -600.2688459272       247.6144525205       297.1362504783        13.3504307362      2451.3339426883     -3103.2717933569      -506.4321289936       709.1653799254      2655.9708016711 
  103000       295.1885845226     11340.8786366700         0.7835029073       290.5095088937      -590.2714915960       239.9162071066       309.1126121342        -1.6010250593      2433.0012063826     -3102.2585285835      -468.4419635765       704.7650406027      2504.6423759816 
  104000       304.8309465206     11105.8863756287         0.8000812437       347.8533291625      -561.6984629261       273.3357056388       329.7921490291        18.9478238073      2421.0888765843     -3103.9690142647      -500.8940037207       260.5066126487      -539.2839170359 
  105000       290.2060576019     10821.9789633864         0.8210708424       275.1081605856      -590.8060216181       263.5376442961       309.7944628133        11.7938340114      2438.2814742383     -3103.6549523317      -510.5584846455       245.8857346839      -185.1542525919 
  106000       289.7091026821     11089.9587961790         0.8012303334       304.7713299973      -559.6600426590       286.7833558674       326.2785861487         7.3137475959      2391.5848341052     -3102.9035821494      -468.7169842268       446.9050245695       878.8023773605 
  107000       292.5384603883     11202.0157444536         0.7932153986       316.8162828460      -556.0573014737       264.1316498394       329.0597436049         7.5719041227      2439.5653144428     -3102.6222016410      -493.7637118425       479.7451924065       997.3006056317 
  108000       278.4791184178     10983.8525851243         0.8089703785       272.5174378494      -558.4060104005       267.0720122963       332.3589324608        10.5169045869      2435.9829578098     -3103.9230480892      -500.4137694651       300.8747970168       177.0252428849 
  109000       302.5647931486     10757.8436166751         0.8259658441       320.0846580137      -582.7054063560       271.8197313440       334.8713263678        12.1756229368      2406.9627688041     -3102.4089647418      -506.1258910669       498.0869223274      1134.5520129592 
  110000       290.0816267566     11229.4602496400         0.7912768010       297.3341773831      -568.2087292015       265.6209804621       337.4997236633         3.5747053461      2404.1262945816     -3103.2101863308      -475.8202469238       465.1643516219      1024.7909321464 
Loop time of 67.5354 on 64 procs for 50000 steps with 1002 atoms

Performance: 63.966 ns/day, 0.375 hours/ns, 740.353 timesteps/s
99.2% CPU use with 64 MPI tasks x no OpenMP threads

MPI task timing breakdown:
Section |  min time  |  avg time  |  max time  |%varavg| %total
---------------------------------------------------------------
Pair    | 7.488      | 11.002     | 14.768     |  65.4 | 16.29
Bond    | 0.26061    | 0.28566    | 0.31809    |   2.4 |  0.42
Kspace  | 10.097     | 13.857     | 17.371     |  58.3 | 20.52
Neigh   | 24.385     | 24.598     | 24.786     |   2.1 | 36.42
Comm    | 15.837     | 16.037     | 16.262     |   2.8 | 23.75
Output  | 0.028975   | 0.029024   | 0.029443   |   0.0 |  0.04
Modify  | 1.1292     | 1.1889     | 1.2398     |   2.0 |  1.76
Other   |            | 0.5374     |            |       |  0.80

Nlocal:    15.6562 ave 24 max 8 min
Histogram: 4 6 4 10 3 15 15 4 1 2
Nghost:    4715.5 ave 4781 max 4573 min
Histogram: 1 2 1 5 6 7 8 5 16 13
Neighs:    11976 ave 25181 max 4509 min
Histogram: 6 10 13 8 12 6 7 0 1 1

Total # of neighbors = 766466
Ave neighs/atom = 764.936
Ave special neighs/atom = 5
Neighbor list builds = 50000
Dangerous builds not checked
unfix anneal
undump anneal

# RETURN TO LESS FREQUENT NEIGHBOR BUILDS
neigh_modify every 1 delay 10 check yes one 10000 # More relaxed rebuild criteria can be used

#===========================================================
# RUN EQUILIBRIUM SIM
#===========================================================

# UPDATE RUN PARAMETERS AND CREATE FIX
fix equil all npt temp ${FINAL_TEMP} ${FINAL_TEMP} 100.0 iso ${pressure} ${pressure} 1000.0 # NPT, nose-hoover 100 fs T relaxation
fix equil all npt temp 298.0 ${FINAL_TEMP} 100.0 iso ${pressure} ${pressure} 1000.0 
fix equil all npt temp 298.0 298.0 100.0 iso ${pressure} ${pressure} 1000.0 
fix equil all npt temp 298.0 298.0 100.0 iso 1.0 ${pressure} 1000.0 
fix equil all npt temp 298.0 298.0 100.0 iso 1.0 1.0 1000.0 

# CREATE COORDINATE DUMPS FOR EQUILIBRIUM
dump equil all custom ${coords_freq} equil.lammpstrj id type x y z mol
dump equil all custom 1000 equil.lammpstrj id type x y z mol
dump_modify equil sort id format float %20.10g

# RUN EQUIL
run		${nSteps_equil}
run		100000
PPPM initialization ...
WARNING: Using 12-bit tables for long-range coulomb (../kspace.cpp:321)
  G vector (1/distance) = 0.18641
  grid = 8 8 8
  stencil order = 5
  estimated absolute RMS force accuracy = 0.00733131
  estimated relative force accuracy = 2.2078e-05
  using double precision FFTs
  3d grid and FFT values/proc = 343 8
Per MPI rank memory allocation (min/avg/max) = 11.04 | 11.05 | 11.05 Mbytes
Step Temp Volume Density TotEng PotEng E_bond E_angle E_dihed E_coul E_long E_vdwl Enthalpy Press 
  110000       290.0816267566     11229.4602496400         0.7912768010       297.3337619653      -568.2091446193       265.6209804621       337.4997236633         3.5747053461      2402.4318600411     -3101.5161672081      -475.8202469238       465.1617572339      1024.7776270960 
  111000       302.2122967677     10750.7056903771         0.8265142438       301.0087096670      -600.7295792231       255.2438023470       322.8425281305         6.9942174690      2408.0694857654     -3101.1824202072      -492.6971927277       623.9457653416      2059.7049803151 
  112000       291.5390058772     11149.5748891362         0.7969462040       272.9805096408      -596.9109114436       259.6149769340       313.8251422304         9.0539827706      2396.7055929100     -3100.6901729290      -475.4204333597       129.5243298259      -882.2365847733 
  113000       296.6490488816     10852.9398595595         0.8187285195       314.9043673498      -570.2343533456       275.7473228703       312.5754090165        10.2208081533      2425.1332741306     -3100.0449331293      -493.8662343870        74.1815070213     -1520.8768500132 
  114000       293.7089466700     11091.7351529633         0.8011020152       332.3589622957      -544.0071082933       274.8780526639       324.5648414050         6.0033370730      2452.5264492377     -3101.2904346282      -500.6893540447       634.1130987494      1865.4252532166 
  115000       309.4416949056     11258.6237348298         0.7892271376       363.9124269470      -559.3968740307       258.7352434231       321.6145304435        13.0157279747      2428.7692058931     -3098.6947559738      -482.8368257914       215.8769737426      -901.5805687362 
  116000       296.5818605193     11161.4549880799         0.7960979454       321.4955393519      -563.4427053221       263.5743928724       318.8674475190         5.2128911167      2412.1566006422     -3100.9010769272      -462.3529605452         7.5566952128     -1928.6274927902 
  117000       303.2251182558     11450.0748005331         0.7760308590       357.8369763546      -546.9233600347       283.8190720019       293.2326979288         7.9637343220      2428.7709543811     -3100.1867873802      -460.5230312883       155.2361123458     -1213.2689405718 
  118000       301.5676989700     10953.8256017508         0.8111879545       379.0866103039      -520.7283335692       280.5977747951       306.7623944011         9.6049560533      2474.9358798250     -3101.4305623283      -491.1987763155       567.9796399934      1182.4266809846 
  119000       303.3675392510     11130.1656600232         0.7983359507       362.8452663061      -542.3400245470       255.2671897793       317.3780310213        19.1897671697      2442.7690423924     -3100.0551895248      -476.8888653850       233.4941737157      -796.8793698463 
  120000       315.6258282369     11316.4646912388         0.7851932230       388.3123846636      -553.4490768253       254.7543469466       314.6977302232         7.8337586682      2437.0684894553     -3100.4146402481      -467.3887618706       779.6453626751      2371.1541344050 
  121000       290.5743880063     10909.1511851031         0.8145098764       310.1043577533      -556.9088453446       289.3363423733       291.5153262706         5.6940532490      2449.5914486307     -3101.4707332030      -491.5752826651       830.1063846686      3268.4224626987 
  122000       305.4234753234     11370.1433957017         0.7814863080       365.4715970964      -545.8481770183       257.3351706011       329.8217068886        10.1035876209      2409.5210564099     -3101.2512748012      -451.3784237377       613.5116729261      1495.8223712947 
  123000       298.4274380416     10741.5480863618         0.8272188806       337.7517432485      -552.6933187682       273.1552199964       328.8037572351         8.6151863404      2422.4739854017     -3100.9501365364      -484.7913312054       -11.5153483737     -2229.5381160752 
  124000       305.1776979287     11234.2855712556         0.7909369338       357.3314525755      -553.2549731954       268.3344818523       320.3913725172         8.2693027087      2411.6845931833     -3101.9047244140      -460.0299990429        89.2082233752     -1636.4890080755 
  125000       300.2762692584     10802.7114882809         0.8225352860       318.7290649048      -577.2325227982       273.4146845797       318.1418884131         6.8232743677      2423.6680405722     -3102.3894566443      -496.8909540866       166.8341461739      -964.1277410059 
  126000       293.5166108073     11087.0838445945         0.8014380975       321.6244415759      -554.1677390239       266.1012004769       327.9737383786         5.7386342389      2430.0955256133     -3101.1643811264      -482.9124566052         9.5747585906     -1929.8809735245 
  127000       318.8283665082     11140.1191057628         0.7976226555       387.3960788242      -563.9210870877       255.2222945673       341.9072630317        10.9166470174      2418.2047400881     -3100.9393135067      -489.2327182854       703.5966595039      1946.2424443981 
  128000       306.4479267766     10909.5255373145         0.8144819271       325.5351598797      -588.8413631177       268.8978816184       321.2058213285         5.3473386712      2408.4093636804     -3100.1227063623      -492.5790620540       652.6174623240      2055.7736426252 
  129000       283.0275661519     11137.9363228908         0.7977789714       296.2086919410      -548.2863730853       258.1854950678       339.9486742219        15.3570676241      2415.8447614944     -3101.7999481461      -475.8224233474       229.2572871151      -412.1725585286 
  130000       285.2978085079     11025.7809898036         0.8058940579       288.7017052953      -562.5672881228       260.8784036288       338.8162261804         6.8438480970      2425.1205768513     -3102.0529297706      -492.1734131096       -49.7042066648     -2104.5182224455 
  131000       292.1654651550     10823.7515879342         0.8209363742       316.2312159702      -555.5294285816       276.1504871330       312.6445972143         7.9985098811      2428.4296915880     -3100.1071292471      -480.6455851510       622.3010977499      1938.9512501626 
  132000       304.5380247705     11132.1722464413         0.7981920498       316.2682294066      -592.4095454414       257.7375249083       327.7406842582         9.2443893572      2406.5877676725     -3102.2165668673      -491.5033447702       387.1600501338       436.6568964367 
  133000       300.4158320769     11115.1684750660         0.7994131086       287.8842640752      -608.4937498902       245.6684382561       326.9317525297         6.5702117966      2402.7723788967     -3102.5027958784      -487.9337354909       446.1682775562       976.4389940265 
  134000       292.7409419041     10985.4523784755         0.8088525695       296.2893862178      -577.1883605980       248.5422932665       334.5152206262         8.6145839387      2438.0243196383     -3100.6196747386      -506.2651033291       192.2953002975      -649.1047792350 
  135000       304.7454214209     10926.2568064959         0.8132347190       320.2824735274      -589.0141295505       264.7683967171       313.4111908262        12.4851847925      2414.8814103787     -3101.4521658112      -493.1081464539       390.0240051960       437.6673888306 
  136000       300.2972071917     10800.3744572234         0.8227132697       316.7318467491      -579.2922153681       251.2724698564       335.4127493949         8.9437584446      2421.4420504131     -3100.9503049957      -495.4129384815       171.7456884343      -920.4746661296 
  137000       296.0718904262     11431.6229581004         0.7772834545       355.4075223913      -528.0090781801       258.5510970500       324.0717363429         5.3357869619      2452.6804978082     -3101.2515355421      -467.3966608009       107.6294602947     -1486.2062064159 
  138000       301.0216806349     11004.3304915283         0.8074649694       356.2680578654      -541.9176814897       271.9046793986       307.1103723080        18.6609207002      2458.5748578560     -3102.2519368879      -495.9165748646       502.3791254926       910.4237944204 
  139000       298.9008520467     11163.7485834477         0.7959343868       381.6981536275      -510.1594767706       273.5324700157       334.3548424093         9.3959523485      2439.2051598140     -3101.3584660001      -465.2894353579       467.0203479241       524.0540472146 
  140000       302.8076377588     11286.4481963421         0.7872814573       323.7908929018      -579.7237689963       231.3180560766       322.8121664769         9.8286398469      2435.7308534019     -3100.1796746560      -479.2338101426       127.6752962603     -1191.4585868424 
  141000       297.8514009746     11018.3576107628         0.8064370115       299.0339866442      -589.6923012370       249.2552514857       308.8204790665        10.4580018544      2438.1187721452     -3100.9332405335      -495.4115652552       519.0854108420      1369.4034908615 
  142000       313.0354285671     11408.4431371645         0.7788627490       360.9103995869      -573.1218510434       265.7598953467       297.5441046047        10.8020044116      2435.4597994590     -3101.2021771923      -481.4854776731       531.7500751541      1026.8014339831 
  143000       296.9082623494     10830.8621944100         0.8203974184       275.9455855659      -609.9665739057       235.1521459756       295.8315615530         4.8508742853      2452.3235453378     -3102.3825212543      -495.7421798033       196.8073745143      -501.0110552917 
  144000       284.9409372765     11134.4261079823         0.7980304775       314.5555579722      -535.6486063275       265.9584410995       341.1767572723         8.8056271477      2423.0602297836     -3101.8350491958      -472.8146124349       220.4390946935      -579.5913188382 
  145000       290.0960524236     11182.9832902741         0.7945653814       299.3101995140      -566.2757502441       245.9258941524       329.8436321745        13.5708322353      2435.5638925147     -3100.1788851175      -491.0011162035       340.3625240407       251.7121551376 
  146000       309.3799875055     11433.8136668903         0.7771345277       424.1994642706      -498.9257147307       280.6868448908       339.0751543090        16.8351895571      2427.5790465983     -3101.0355017530      -462.0664483328       394.7051091557      -176.8772205493 
  147000       298.3228594204     11259.7129475466         0.7891507914       339.2133419427      -550.9196793399       281.7923825426       318.6154913113        14.2833321024      2417.0601137044     -3101.3472786416      -481.3237203591        66.2908500743     -1662.0195179441 
  148000       280.9658542781     11088.1750797744         0.8013592245       286.5567746015      -551.7865733797       247.3422404799       328.0464989917        11.0177181420      2449.5322731830     -3101.9149045251      -485.8103996512       350.0046279536       392.3566058624 
  149000       291.1053569899     11216.5269433725         0.7921891891       311.1165259532      -557.4809775449       252.0791096803       318.5555543180         9.7877616789      2427.3831433996     -3101.0907548537      -464.1957917679       510.7584421875      1220.4428191420 
  150000       304.3296100782     10990.6080352727         0.8084731395       420.6082980949      -487.4476108989       271.8589609661       344.5102032287         9.9462405056      2491.0561046240     -3099.8620298051      -504.9570904183       495.5614654041       467.6192495561 
  151000       301.5644568287     11284.8669798670         0.7873917698       337.1981754541      -562.6070945473       281.3120017549       305.0575437177        13.0422822327      2417.1895638346     -3100.9155662472      -478.2929198400       153.9133116707     -1113.6642217887 
  152000       304.1369069295     10778.3431239204         0.8243949261       373.6982786817      -533.7826444183       271.5856679912       335.9484895782        16.0608105569      2416.1356811776     -3101.5277915112      -471.9855022111        74.9581988047     -1900.4900418025 
  153000       297.3946545820     11373.4311008350         0.7812604046       316.0034442367      -571.3600079328       254.9413491690       316.6566077267         3.1567499236      2433.1634976836     -3100.2988289343      -478.9793835015       179.7735623082      -821.3059890775 
  154000       308.7774647649     11442.7884029044         0.7765250104       332.6373061561      -588.6900709987       239.3543738766       308.6706458862         9.9958479063      2444.8850301842     -3101.7212437520      -489.8747251000       187.3194529510      -870.7855563379 
  155000       296.7513924459     11164.9253642601         0.7958504955       372.8313769362      -512.6127155510       263.8416096373       347.0094184601         9.4497326950      2420.4761240404     -3100.0742800824      -453.3153203014       627.9940549105      1567.0593241815 
  156000       299.7199576544     10988.5410449696         0.8086252167       337.7867410433      -556.5149291804       266.8529217019       308.5361895362        12.8022194717      2427.3964802891     -3100.9652492715      -471.1374909078       555.4146932404      1357.9968151171 
  157000       294.2364117723     11085.6676237286         0.8015404832       283.6641042551      -594.2758118850       266.6001454198       300.0528238793        11.5893197064      2412.3407711244     -3101.1669272804      -483.6919447345       -72.7153104329     -2204.3211499029 
  158000       301.8316330847     11024.6025879072         0.8059801986       321.4966969003      -579.1057711718       255.3504303464       333.7145171488        12.3443466088      2399.3237103995     -3102.0174029111      -477.8213727641        -5.3577956177     -2032.8981755924 
  159000       292.0337549119     11143.1363063843         0.7974066851       366.8494589665      -504.5181897656       272.8262229572       351.8804872836        13.2915905063      2439.9481671118     -3099.0985027074      -483.3661549170       293.4100655881      -451.9035452916 
  160000       305.9120387539     11049.2760649283         0.8041804125       323.1663963891      -589.6111488240       257.1260287739       308.6086503004        17.1440353677      2410.9578015378     -3101.7543143182      -481.6933504856       303.9953818739      -118.9694303521 
  161000       291.5636806760     11075.3734526755         0.8022854869       313.3211134353      -556.6439320882       248.1177345702       333.8617592971        15.6808504970      2429.7699477874     -3102.0141739791      -482.0600502608       948.0487943786      3929.6436571530 
  162000       286.7525824964     11203.4560795647         0.7931134215       303.2428095121      -552.3669252363       264.0482962597       317.0414283526         8.7707180274      2426.8244018765     -3100.6441296117      -468.4076401409        65.6466868529     -1454.1574872242 
  163000       303.0938798286     11306.3026275284         0.7858989518       341.1005901511      -563.2681582186       263.1062653981       319.8332270524         9.7974872456      2428.7435664526     -3101.9822570916      -482.7664472757        70.4840837734     -1641.1859408376 
  164000       312.3053053016     11135.3888152224         0.7979614840       372.1884281915      -559.6652873126       261.8412763780       327.7643834074        11.4010264532      2414.5622334025     -3101.8280370817      -473.4061698721       718.4088572804      2131.9225091442 
  165000       291.1036461887     11271.5245161187         0.7883238306       280.1868821809      -588.4055166443       247.0100037468       317.5446846368         3.7083962462      2416.8936851765     -3100.8574033577      -472.7048830930       434.4748968501       938.5850693253 
  166000       297.0840115643     11383.4992695018         0.7805694166       340.3523817192      -546.0841766533       268.7639430527       318.4186628668         4.6889648698      2446.3556454412     -3101.5051492579      -482.8062436259        93.0890976291     -1489.3883749062 
  167000       279.2976634137     10794.4392345120         0.8231656310       255.0833024049      -578.2825129221       254.6612292831       305.8348303829        12.4842109725      2445.6415610806     -3101.5298528225      -495.3744918188       470.9960529477      1371.5205358394 
  168000       295.1016515614     11083.5450858755         0.8016939810       269.0542515118      -611.4673592029       257.2630997636       305.0916855624         8.1661898275      2403.9813079693     -3101.7599339051      -484.2097084206        -3.4780143744     -1686.0224200277 
  169000       298.1032392419     11158.5316332543         0.7963065102       299.6047103556      -589.8730102458       247.0314480891       308.1481232824         7.0769295773      2436.3647167131     -3101.5756621693      -486.9185657383      -250.0598944212     -3377.6514661507 
  170000       293.0588986149     10813.6597446460         0.8217025127       285.1767704993      -589.2496926442       267.6485144358       317.4730917209         9.3536456371      2399.3144953374     -3100.6169020694      -482.4225377060       578.5074599256      1859.9827366289 
  171000       301.4903708396     10874.4612146045         0.8171081958       321.6453908873      -577.9388220169       285.8113968146       314.7334783375        11.7978879573      2419.9230196755     -3101.5558745240      -508.6487302778       207.3043157353      -720.9723900654 
  172000       288.0752830502     11131.8468966640         0.7982153785       274.5825994679      -584.9737971037       255.3761399637       308.6540529223        10.5654697724      2418.5705416140     -3099.7946141228      -478.3453872534       508.2308975650      1439.1945574428 
  173000       287.5830393316     10811.7691570945         0.8218461988       272.8982048750      -585.1894393880       248.9252871434       329.7020048404         9.3479899203      2435.5682034134     -3100.2533593656      -508.4795653399       465.1502829090      1219.2657907977 
  174000       301.3992386216     11189.3505687490         0.7941132355       366.1442521556      -533.1680412697       264.7145802453       328.1612111600        17.7607054191      2419.6867443088     -3099.7857749429      -463.7055074600       246.4325842780      -733.5939001055 
  175000       310.8800952631     11143.0961340023         0.7974095599       350.5600890107      -577.0410978068       252.0443730229       318.4925457122         9.8445777656      2419.6490030926     -3101.1796531308      -475.8919442694       475.9212624350       771.4029261593 
  176000       294.8636763779     11202.7995864613         0.7931598986       339.4904954458      -540.3210470914       268.0163396063       321.1172957251        11.6366311701      2442.2721712043     -3101.3423232564      -482.0211615407       365.8155000851       161.1261389664 
  177000       300.5869246283     11025.2357850670         0.8059339099       344.1404740057      -552.7480443508       262.5365991602       319.1774324692        16.4392869520      2415.2382958251     -3101.3833647432      -464.7562940142        80.5698934897     -1639.2045756598 
  178000       286.1083893227     11431.1746076675         0.7773139409       289.6569836930      -564.0306133516       283.5653455594       281.3970494755        11.2838950376      2426.8687094693     -3100.6321049244      -466.5135079691       474.4339271377      1108.3604769757 
  179000       301.6961761925     10808.6957651954         0.8220798861       291.9955914453      -608.2027015900       260.1579001664       280.5967673367        13.0337722757      2436.0375253996     -3099.8068623552      -498.2218044131       392.7018069361       638.8620539292 
  180000       298.4532197083     11194.0744316617         0.7937781223       345.4296119419      -545.0923771761       265.7470426324       305.7413999325        10.1798701219      2466.4495165285     -3099.9869435647      -493.2232628267       592.8323042606      1515.4455674371 
  181000       305.0580831187     10924.1590696798         0.8133908823       355.2851733898      -554.9443468042       261.6800945829       311.9780567043        15.0704938449      2455.7055362054     -3101.6738268433      -497.7047012984       413.7969009856       367.2645550623 
  182000       313.4421251432     11301.8677383256         0.7862073411       394.8391062373      -540.4066419197       246.2498690452       312.3583795717        12.1258677315      2481.7953578269     -3100.8045978074      -492.1315182876       655.8738721524      1583.6975421330 
  183000       295.1883900019     11085.7083592533         0.8015375378       328.0900384068      -552.6903816738       283.1686212886       297.8836243148        16.3511189180      2437.3347623775     -3101.4181660956      -486.0103424771       286.6077544267      -256.5803078091 
  184000       299.8629390353     11233.6807630075         0.7909795170       343.8557093548      -550.8725874063       271.2412272525       320.5223530885        14.0679974910      2415.0898963660     -3101.2659890405      -470.5280725639       397.9916894761       330.4365176206 
  185000       296.9401518225     11382.9275145027         0.7806086239       322.9517373942      -563.0555735957       259.3129722373       315.3370314627        10.4082219330      2411.8363158722     -3099.6332601506      -460.3168549502       755.0477025330      2602.8572544024 
  186000       300.6153167675     11032.3853764239         0.8054116205       313.0924770782      -583.8807574836       263.7924297725       300.1498327002        12.2079680477      2410.8954547463     -3101.8822368436      -469.0442059068       400.9809090514       546.2436519047 
  187000       294.3619531778     11074.8321315356         0.8023247015       373.8791702149      -504.4353352236       280.6845405458       323.9194344832        18.7265535920      2441.0445636730     -3099.9698662633      -468.8405612543      1036.5466921571      4102.8217052764 
  188000       300.5483611664     11040.4985895156         0.8048197562       338.7992523633      -557.9742006881       250.9613208541       331.5455427493         9.9334866820      2428.2480104478     -3101.3527039256      -477.3098574956       528.5519787547      1178.4833434014 
  189000       291.2308180103     11354.2121920364         0.7825828189       303.3687899523      -565.6030629916       269.0879457643       299.0638426270         6.9313760873      2422.5074017052     -3101.2350895903      -461.9585395851       -71.8810899169     -2266.1448505975 
  190000       306.3808702886     11099.7800700720         0.8005213912       333.1211454297      -581.0552950317       253.3919532267       298.0453824312        14.7777901845      2429.4753646176     -3101.0183034296      -475.7274820621       957.6052440912      3857.7237177318 
  191000       299.7052210285     11664.6146824849         0.7617578142       367.0108441022      -527.2468551120       264.1019366691       314.9759206558        14.4517200561      2420.1055627932     -3102.1640951101      -438.7179001760       540.4186764942      1019.3478772655 
  192000       291.4186364754     10788.6223149486         0.8236094586       227.2968770953      -642.2353868682       241.4229599083       299.8265886024        12.0444778703      2408.1310580820     -3101.2945674225      -502.3659039087        78.0362684264      -948.6441419104 
  193000       297.7448562136     11118.6724999153         0.7991611754       350.7932577895      -537.6151228076       267.7196303657       343.6731475497        11.8561468536      2427.8627390631     -3100.4660697510      -488.2607168889       282.9459991342      -418.4113695341 
  194000       289.8817982997     11294.5356944638         0.7867177212       306.0440178248      -558.9026424367       261.9250149110       308.8049885049         7.6151660752      2433.0228611911     -3099.7486069870      -470.5220661320       560.6381546416      1545.6249731788 
  195000       305.8821594458     11169.8560158293         0.7954991874       406.6134323391      -506.0749592675       256.3480268899       347.4047363170         4.4347017422      2465.9965210699     -3100.0308268592      -480.2281184272       318.3910862824      -541.5706727212 
  196000       311.0844898849     11136.5319158194         0.7978795778       383.2096556416      -545.0014019802       257.5156688546       316.5358595391        14.1525955958      2444.9452767411     -3098.6832467377      -479.4675559731       576.1814950032      1188.1412691739 
  197000       318.6488587578     11174.0585753424         0.7952000004       342.4448291622      -608.3367231647       258.9787478314       275.0805665795        13.9351093327      2424.0613603087     -3100.3044808956      -480.0880263215       540.3442972584      1214.3889138581 
  198000       287.9935705376     11270.5769179677         0.7883901107       289.2820974181      -570.0304861051       263.6847880773       296.9148942100        17.3529163187      2440.1967554790     -3100.5685288046      -487.6113113855       241.0890894868      -293.1986704834 
  199000       297.8216293426     11189.0712873348         0.7941330567       319.5980553488      -569.0394002087       237.1611539137       329.5924391419        10.4918723167      2439.5219736607     -3101.4338079012      -484.3730313406        56.6508047232     -1611.3827270375 
  200000       306.8993477731     11757.1194668962         0.7557643187       404.0419102960      -511.6815585448       256.3777923182       325.2426831657        11.4292915938      2439.5506552552     -3100.9176431175      -443.3643377602       843.4650891840      2562.7494026450 
  201000       311.1994709812     11133.2216885056         0.7981168104       370.0497914888      -558.5043456773       248.0301518056       343.1097266183        16.6751386057      2411.2996078464     -3100.7922728019      -476.8266977513       235.7748702278      -826.9860048348 
  202000       297.7731928907     11237.9860692150         0.7906764903       366.4651444228      -522.0277868923       260.0976155946       328.1490792827        12.6427880314      2436.0874019063     -3100.8396580872      -458.1650136201       173.2541631699     -1178.8741028429 
  203000       300.6784933191     11547.9854741690         0.7694512089       368.1994504544      -528.9622897247       258.0006766835       326.9867887218        12.1446672395      2440.6875643867     -3100.5827245875      -466.1992621687       372.1264360292        23.3172424047 
  204000       297.2374299133     11172.3038871907         0.7953248921       364.8488759056      -522.0454507344       263.4519244385       334.5246899092        12.9452001190      2438.1258811714     -3102.7333425157      -468.3598038567       184.5623196489     -1106.4829182190 
  205000       282.5533724975     11424.4997744700         0.7777680913       318.9192834244      -524.1608869099       255.2490957658       341.1843711090        16.4052808657      2425.3929345123     -3100.2467411649      -462.1458279978        51.5106251129     -1604.9532338097 
  206000       308.8286292699     11282.2476022695         0.7875745771       362.2106539516      -559.2693873858       269.1241717836       305.0053319914        10.7350549594      2434.3614010846     -3101.9243029138      -476.5710442909       448.1138839420       522.0811075482 
  207000       304.4471728961     11410.9294092292         0.7786930464       414.8675707673      -493.5391210881       277.5909298436       336.8224594275        14.7383380947      2461.3654234599     -3100.2490077283      -483.8072641855       468.0800877949       319.7546685195 
  208000       296.6243969657     11113.7980734596         0.7995116813       334.5700748881      -550.4950896459       244.6678156648       332.8732509496        10.8392909506      2428.1408383881     -3101.1848862526      -465.8313993464       959.9819477330      3858.5819680818 
  209000       299.4149103262     11226.4150651881         0.7914914362       302.1288374820      -591.2626353119       256.4175940803       288.9601198153         8.7419276123      2442.2008359369     -3101.1720818072      -486.4110309494       238.5180857171      -388.5201464716 
  210000       308.0359317617     11285.0032809975         0.7873822597       378.6080127053      -540.5067850521       265.1085388371       328.6576854461         7.7898896856      2443.7010334799     -3101.6907992664      -484.0731332344       256.9453587801      -739.2302099184 
Loop time of 64.517 on 64 procs for 100000 steps with 1002 atoms

Performance: 133.918 ns/day, 0.179 hours/ns, 1549.980 timesteps/s
99.3% CPU use with 64 MPI tasks x no OpenMP threads

MPI task timing breakdown:
Section |  min time  |  avg time  |  max time  |%varavg| %total
---------------------------------------------------------------
Pair    | 13.694     | 20.372     | 27.187     |  93.3 | 31.58
Bond    | 0.50608    | 0.54626    | 0.58175    |   2.1 |  0.85
Kspace  | 18.365     | 25.135     | 31.807     |  83.9 | 38.96
Neigh   | 1.736      | 1.7543     | 1.7687     |   0.7 |  2.72
Comm    | 13.441     | 13.577     | 13.739     |   2.0 | 21.04
Output  | 0.050475   | 0.050519   | 0.051145   |   0.0 |  0.08
Modify  | 2.1817     | 2.2785     | 2.3597     |   2.7 |  3.53
Other   |            | 0.8034     |            |       |  1.25

Nlocal:    15.6562 ave 20 max 9 min
Histogram: 2 1 5 3 7 13 8 10 7 8
Nghost:    4703.75 ave 4840 max 4586 min
Histogram: 3 7 9 9 9 7 8 7 2 3
Neighs:    11909.1 ave 18483 max 5743 min
Histogram: 5 5 10 4 7 10 10 7 3 3

Total # of neighbors = 762182
Ave neighs/atom = 760.661
Ave special neighs/atom = 5
Neighbor list builds = 3855
Dangerous builds = 0
unfix equil
undump equil

# WRITE RESTART FILES, CLEANUP, AND EXIT
write_restart   md-5.end.restart
PPPM initialization ...
WARNING: Using 12-bit tables for long-range coulomb (../kspace.cpp:321)
  G vector (1/distance) = 0.186309
  grid = 8 8 8
  stencil order = 5
  estimated absolute RMS force accuracy = 0.00736732
  estimated relative force accuracy = 2.21865e-05
  using double precision FFTs
  3d grid and FFT values/proc = 343 8
write_data      md-5.end.data pair ii
PPPM initialization ...
WARNING: Using 12-bit tables for long-range coulomb (../kspace.cpp:321)
  G vector (1/distance) = 0.186309
  grid = 8 8 8
  stencil order = 5
  estimated absolute RMS force accuracy = 0.00736732
  estimated relative force accuracy = 2.21865e-05
  using double precision FFTs
  3d grid and FFT values/proc = 343 8
unfix		averages
Total wall time: 0:03:35
