
#===========================================================
# GENERAL PROCEDURES
#===========================================================
units		real	# g/mol, angstroms, fs, kcal/mol, K, atm, charge*angstrom
dimension	3	# 3 dimensional simulation
newton		on	# use Newton's 3rd law
boundary	p p p	# periodic boundary conditions
atom_style	full    # molecular + charge

#===========================================================
# FORCE FIELD DEFINITION
#===========================================================
special_bonds  lj   0.0 0.0 0.0  coul 0.0 0.0 0.0     # NO     1-4 LJ/COUL interactions
pair_style     hybrid lj/cut/coul/long 14.0 14.0 # outer_LJ outer_Coul (cutoff values, see LAMMPS Doc)
kspace_style   pppm 0.0001          # long-range electrostatics sum method
bond_style     harmonic             # parameters needed: k_bond, r0
angle_style    harmonic             # parameters needed: k_theta, theta0
dihedral_style hybrid opls            # parameters needed: V1, V2, V3, V4
pair_modify    shift yes mix arithmetic       # using Lorenz-Berthelot mixing rules

#===========================================================
# SETUP SIMULATIONS
#===========================================================

# READ IN COEFFICIENTS/COORDINATES/TOPOLOGY
read_data ${data_name}
read_data md-12.data
  orthogonal box = (-11.2281 -11.2281 -11.2281) to (11.2281 11.2281 11.2281)
  4 by 4 by 4 MPI processor grid
  reading atoms ...
  1002 atoms
  reading velocities ...
  1002 velocities
  scanning bonds ...
  1 = max bonds/atom
  scanning angles ...
  6 = max angles/atom
  scanning dihedrals ...
  3 = max dihedrals/atom
  reading bonds ...
  835 bonds
  reading angles ...
  1169 angles
  reading dihedrals ...
  501 dihedrals
  4 = max # of 1-2 neighbors
  3 = max # of 1-3 neighbors
  4 = max # of 1-4 neighbors
  5 = max # of special neighbors
include ${settings_name}
include md-12.in.settings
     # Non-bonded interactions (pair-wise)
     pair_coeff           1          1          lj/cut/coul/long     0.010560             2.470161
     pair_coeff           1          2          lj/cut/coul/long     0.002118             2.248402
     pair_coeff           1          3          lj/cut/coul/long     0.030183             3.135624
     pair_coeff           1          4          lj/cut/coul/long     0.041352             2.731379
     pair_coeff           2          2          lj/cut/coul/long     0.001000             1.774469
     pair_coeff           2          3          lj/cut/coul/long     0.003839             3.079283
     pair_coeff           2          4          lj/cut/coul/long     0.006174             2.611571
     pair_coeff           3          3          lj/cut/coul/long     0.204972             3.445750
     pair_coeff           3          4          lj/cut/coul/long     0.180351             3.231407
     pair_coeff           4          4          lj/cut/coul/long     0.203710             2.906843

     # Stretching interactions
     bond_coeff           1           366.904251           1.096103
     bond_coeff           2           612.219900           0.957501
     bond_coeff           3           368.709924           1.411527

     # Bending interactions
     angle_coeff          1           40.926667            108.205025
     angle_coeff          2           61.328715            112.232133
     angle_coeff          3           49.873049            108.741688

     # Dihedral interactions
     dihedral_coeff       1          opls                  0.105414            -0.205941             0.372587            -0.070860

# SET RUN PARAMETERS
timestep	1.0		# fs
run_style	verlet 		# Velocity-Verlet integrator
neigh_modify every 1 delay 0 check no one 10000 # More relaxed rebuild criteria can be used

#===========================================================
# RUN CONSTRAINED RELAXATION
#===========================================================

# SET OUTPUTS
thermo_style    custom step temp vol density etotal pe ebond eangle edihed ecoul elong evdwl enthalpy press
thermo_modify   format float %20.10f
thermo ${thermo_freq}
thermo 1000

# DECLARE RELEVANT OUTPUT VARIABLES
variable        my_step equal   step
variable        my_temp equal   temp
variable        my_rho  equal   density
variable        my_pe   equal   pe
variable        my_ebon equal   ebond
variable        my_eang equal   eangle
variable        my_edih equal   edihed
variable        my_evdw equal   evdwl
variable        my_eel  equal   (ecoul+elong)
variable        my_ent  equal   enthalpy
variable        my_P    equal   press
variable        my_vol  equal   vol

fix  averages all ave/time ${dump4avg} $(v_avg_freq/v_dump4avg) ${avg_freq} v_my_temp v_my_rho v_my_vol v_my_pe v_my_edih v_my_evdw v_my_eel v_my_ent v_my_P file thermo.avg
fix  averages all ave/time 100 $(v_avg_freq/v_dump4avg) ${avg_freq} v_my_temp v_my_rho v_my_vol v_my_pe v_my_edih v_my_evdw v_my_eel v_my_ent v_my_P file thermo.avg
fix  averages all ave/time 100 10 ${avg_freq} v_my_temp v_my_rho v_my_vol v_my_pe v_my_edih v_my_evdw v_my_eel v_my_ent v_my_P file thermo.avg
fix  averages all ave/time 100 10 1000 v_my_temp v_my_rho v_my_vol v_my_pe v_my_edih v_my_evdw v_my_eel v_my_ent v_my_P file thermo.avg

# INITIALIZE VELOCITIES AND CREATE THE CONSTRAINED RELAXATION FIX
velocity        all create ${ANNEAL_TEMP} ${vseed} mom yes rot yes     # DRAW VELOCITIES
velocity        all create 100.0 ${vseed} mom yes rot yes     
velocity        all create 100.0 27448 mom yes rot yes     

fix relax all nve/limit 0.01
run             10000
PPPM initialization ...
WARNING: Using 12-bit tables for long-range coulomb (../kspace.cpp:321)
  G vector (1/distance) = 0.186238
  grid = 8 8 8
  stencil order = 5
  estimated absolute RMS force accuracy = 0.00739281
  estimated relative force accuracy = 2.22632e-05
  using double precision FFTs
  3d grid and FFT values/proc = 343 8
Neighbor list info ...
  update every 1 steps, delay 0 steps, check no
  max neighbors/atom: 10000, page size: 100000
  master list distance cutoff = 16
  ghost atom cutoff = 16
  binsize = 8, bins = 3 3 3
  1 neighbor lists, perpetual/occasional/extra = 1 0 0
  (1) pair lj/cut/coul/long, perpetual
      attributes: half, newton on
      pair build: half/bin/newton
      stencil: half/bin/3d/newton
      bin: standard
Per MPI rank memory allocation (min/avg/max) = 8.555 | 8.678 | 9.267 Mbytes
Step Temp Volume Density TotEng PotEng E_bond E_angle E_dihed E_coul E_long E_vdwl Enthalpy Press 
       0       100.0000000000     11324.3323775758         0.7846477026      -329.3282816485      -627.7073676535       269.0602399668       283.6724491863        13.0425839863      2347.0334829762     -3098.4101339637      -442.1059898056      -594.2516913115     -1604.1014773600 
    1000        24.8102634013     11324.3323775758         0.7846477026     -1398.6751729622     -1472.7038101346         9.4524258986        18.5099364640       -36.0707073628      2072.2798405047     -3100.3425842722      -436.5327213668     -1762.4341667353     -2202.5472949212 
    2000        20.9581255417     11324.3323775758         0.7846477026     -1443.1762059254     -1505.7108693604         9.3035663502        17.3193933609       -37.1804488495      2057.0639733712     -3100.7287797435      -451.4885738496     -1897.3844679455     -2750.2142791479 
    3000        18.2440670572     11324.3323775758         0.7846477026     -1470.4661936572     -1524.9026741925         8.6189532909        17.4632970898       -36.3242797368      2046.4182060078     -3100.2230724414      -460.8557784028     -1905.9052339373     -2636.5673335627 
    4000        16.5279751151     11324.3323775758         0.7846477026     -1488.9243065112     -1538.2403275949         8.6517479301        17.2370593457       -36.9329985191      2037.9648715388     -3100.4513175783      -464.7096903122     -1873.5775791827     -2329.0613832450 
    5000        16.2136048381     11324.3323775758         0.7846477026     -1501.7381488638     -1550.1161547881         8.7983194569        16.5123961764       -37.1473794654      2038.7451855261     -3100.2701493737      -476.7545271084     -1904.1614665801     -2436.6583507821 
    6000        13.5214885110     11324.3323775758         0.7846477026     -1512.0432626096     -1552.3885564430         8.5970328855        16.9384903854       -37.3961736362      2025.7805760235     -3100.4271117924      -465.8813703089     -1857.7633619217     -2093.3224540827 
    7000        13.4186675322     11324.3323775758         0.7846477026     -1519.5317264511     -1559.5702239877         8.4171812439        16.5000908121       -37.8854692586      2030.5966839947     -3100.4211951062      -476.7775156736     -1872.1816527708     -2135.2823010995 
    8000        12.5172701510     11324.3323775758         0.7846477026     -1524.4510625709     -1561.7999788402         8.7150266740        15.9524363054       -38.2951790435      2029.0482311708     -3100.4093254012      -476.8111685459     -1911.9656554911     -2346.3865718499 
    9000        11.8998492277     11324.3323775758         0.7846477026     -1531.1236094684     -1566.6302708299         8.1312974421        16.4159718321       -37.6349919318      2023.6818863672     -3100.2766979495      -476.9477365900     -1869.5324155514     -2049.0528431593 
   10000        11.7253721334     11324.3323775758         0.7846477026     -1536.5088333061     -1571.4948915085         8.4049445471        16.0347885600       -38.7040263225      2022.3412935284     -3100.7226138895      -478.8492779319     -1912.1766569719     -2274.6548208240 
Loop time of 11.4696 on 64 procs for 10000 steps with 1002 atoms

Performance: 75.329 ns/day, 0.319 hours/ns, 871.867 timesteps/s
99.0% CPU use with 64 MPI tasks x no OpenMP threads

MPI task timing breakdown:
Section |  min time  |  avg time  |  max time  |%varavg| %total
---------------------------------------------------------------
Pair    | 0.48451    | 1.7711     | 3.2445     |  45.3 | 15.44
Bond    | 0.011151   | 0.044595   | 0.071518   |   5.2 |  0.39
Kspace  | 0.9197     | 2.3979     | 3.6953     |  39.1 | 20.91
Neigh   | 3.9182     | 4.0127     | 4.1296     |   2.8 | 34.99
Comm    | 3.0273     | 3.1443     | 3.2554     |   3.3 | 27.41
Output  | 0.0016031  | 0.0018786  | 0.001894   |   0.1 |  0.02
Modify  | 0.0078688  | 0.0093514  | 0.01019    |   0.5 |  0.08
Other   |            | 0.08782    |            |       |  0.77

Nlocal:    15.6562 ave 24 max 0 min
Histogram: 3 1 3 1 3 6 15 19 7 6
Nghost:    4692.83 ave 5040 max 4294 min
Histogram: 4 2 4 9 6 13 8 10 6 2
Neighs:    11839.3 ave 21990 max 0 min
Histogram: 2 5 2 6 10 13 12 6 5 3

Total # of neighbors = 757715
Ave neighs/atom = 756.203
Ave special neighs/atom = 5
Neighbor list builds = 10000
Dangerous builds not checked
unfix relax

#===========================================================
# RUN RAMPED ANNEAL
#===========================================================

# REINITIALIZE THE VELOCITIES AND CREATE THE ANNEALING FIX
velocity        all create ${ANNEAL_TEMP} ${vseed} mom yes rot yes     # DRAW VELOCITIES
velocity        all create 100.0 ${vseed} mom yes rot yes     
velocity        all create 100.0 27448 mom yes rot yes     

fix mom all momentum 1000 linear 1 1 1 angular # Zero out system linear and angular momentum every ps
fix anneal all npt temp ${ANNEAL_TEMP} ${FINAL_TEMP} 100.0 iso ${pressure} ${pressure} 1000.0 # NPT, nose-hoover 100 fs T relaxation
fix anneal all npt temp 100.0 ${FINAL_TEMP} 100.0 iso ${pressure} ${pressure} 1000.0 
fix anneal all npt temp 100.0 298.0 100.0 iso ${pressure} ${pressure} 1000.0 
fix anneal all npt temp 100.0 298.0 100.0 iso 1.0 ${pressure} 1000.0 
fix anneal all npt temp 100.0 298.0 100.0 iso 1.0 1.0 1000.0 

# CREATE COORDINATE DUMPS FOR ANNEAL
dump anneal all custom ${coords_freq} anneal.lammpstrj id type x y z mol
dump anneal all custom 1000 anneal.lammpstrj id type x y z mol
dump_modify anneal sort id format float %20.10g

# RUN RAMPED ANNEAL
run ${nSteps_ramp}
run 50000
PPPM initialization ...
WARNING: Using 12-bit tables for long-range coulomb (../kspace.cpp:321)
  G vector (1/distance) = 0.186238
  grid = 8 8 8
  stencil order = 5
  estimated absolute RMS force accuracy = 0.00739281
  estimated relative force accuracy = 2.22632e-05
  using double precision FFTs
  3d grid and FFT values/proc = 343 8
Per MPI rank memory allocation (min/avg/max) = 9.828 | 10.36 | 10.55 Mbytes
Step Temp Volume Density TotEng PotEng E_bond E_angle E_dihed E_coul E_long E_vdwl Enthalpy Press 
   10000       100.0000000000     11324.3323775758         0.7846477026     -1273.1158055035     -1571.4948915085         8.4049445471        16.0347885600       -38.7040263225      2022.3412935284     -3100.7226138895      -478.8492779319     -1473.1882773010     -1211.4314397421 
   11000        91.2948749110     10028.2853377224         0.8860549021     -1016.8511215688     -1289.2559348975       115.4074363080       106.6866824862       -18.7655538715      2091.9824003782     -3100.6715692835      -483.8953309149     -1673.3819814718     -4489.0306713548 
   12000       110.1019463554      9980.5135281395         0.8902960112      -977.8161819610     -1306.3373631700        81.8264835515       109.8071794762       -17.4167856398      2122.6611525139     -3100.4389213085      -502.7764717633     -1012.8053391597      -240.3835278148 
   13000       113.2593748946      9896.4641097186         0.8978571826      -975.2638600974     -1313.2061477230        92.9712876186       102.4265046209       -16.7388582017      2102.7193746324     -3100.7350143150      -493.8494420782     -1048.2928324466      -505.9868683954 
   14000       115.0666479378      9878.6297810856         0.8994781240      -951.6383319343     -1294.9731443476        96.8855972147       110.5754147214       -17.5821137103      2119.1078853105     -3100.7128856123      -503.2470422717     -1090.3702229529      -962.9499321167 
   15000       119.3605990891      9769.2780720288         0.9095463675      -920.8691253940     -1277.0161900060       109.2776800657       119.8428549750       -13.8652874265      2122.7921166614     -3100.6242219035      -514.4393323782      -927.5278539564       -46.7361518502 
   16000       127.4916901161      9750.9284815295         0.9112579792      -890.3308144327     -1270.7393541334       109.7564624911       123.1514160073       -14.0072795604      2120.8327656773     -3100.4171145236      -510.0556042252     -1216.1077398725     -2290.8595282279 
   17000       128.4840962196      9627.6747962240         0.9229239221      -894.4080863485     -1277.7777583103        99.6641662854       120.1718262016        -6.9888585727      2119.2479352027     -3100.3233882046      -509.5494392228      -659.0505761918      1676.2190010949 
   18000       131.6149929009      9601.3588179248         0.9254535272      -859.6068773631     -1252.3184902262       114.9334898615       132.7685426095       -13.3148792414      2127.5825012050     -3100.4392403820      -513.8489042788      -851.4288355373        58.4037505975 
   19000       137.7374942617      9648.5265603475         0.9209293593      -839.8795170946     -1250.8593935589       117.5233735292       138.5517571102        -8.0705528087      2117.1104526183     -3100.7006294217      -515.2737945862     -1077.9836602927     -1692.1157445034 
   20000       140.1489110558      9702.8244022538         0.9157757592      -817.2853662318     -1235.4604060861       111.9266177656       139.4964950596        -6.9072911948      2127.1833125971     -3100.3057790107      -506.8537613028      -768.8066611587       342.5917887723 
   21000       147.4248795786      9757.1485702259         0.9106770610      -771.8456730480     -1211.7306812787       121.7296106261       144.5980436022       -11.9286459944      2139.2862218695     -3099.4392904878      -505.9766208944      -814.8779832565      -302.4097956024 
   22000       142.2478141821      9538.9954384909         0.9315038927      -773.5079680706     -1197.9456958892       122.8323019152       150.5275217236        -0.6216636750      2137.8342231132     -3100.0129261909      -508.5051527753      -868.5843509461      -683.4301284390 
   23000       149.0406288656      9550.0946226669         0.9304212926      -767.4690619012     -1212.1751280866       120.2927410006       146.4372715997        -5.5869721149      2138.6286113190     -3100.2154718350      -511.7313080560      -333.3341492484      3117.0311952842 
   24000       153.0243274241      9689.1625772581         0.9170670130      -729.7963204471     -1186.3889099805       125.1625864149       163.9237429213        -4.3049040458      2156.3504594848     -3100.4481619252      -527.0726328305      -863.2402632112      -944.3581500185 
   25000       163.7557282794      9789.9181719659         0.9076287695      -689.3422885012     -1177.9551338220       133.1181561119       157.1346636762        -6.8965716750      2136.8454560574     -3100.5205256229      -497.6363123697      -400.2459564642      2024.8256340747 
   26000       170.5717626257      9794.3365315821         0.9072193257      -649.3013811619     -1158.2518474672       131.5591016931       165.7291428865        -6.4165547623      2157.2681031092     -3099.2263570420      -507.1652833516      -799.1161944187     -1048.8269680563 
   27000       167.6985212383      9877.7527137606         0.8995579907      -647.8511430693     -1148.2284579841       142.6445198919       173.2571385334        -8.1804233285      2135.1169605804     -3100.2878896259      -490.7787640354      -431.2964269791      1503.2582889424 
   28000       172.0481909272      9852.3725090479         0.9018752971      -608.6511413100     -1122.0069608869       152.7232403902       174.3903832329        -8.0614618952      2160.4422380790     -3099.5775530518      -501.9238076419      -396.1451082259      1478.9536076857 
   29000       174.5452212725      9942.0086030638         0.8937440852      -570.7497994506     -1091.5562353489       153.6313987793       191.4776873608        -5.7774750441      2164.0609569166     -3100.2675884729      -494.6812148886      -605.0985472146      -236.8977221252 
   30000       178.9817797934      9986.2567892872         0.8897839872      -544.1595046796     -1078.2037033425       156.2417330413       190.7343019578        -0.7797124572      2145.6383499376     -3099.8447801578      -470.1935956643      -344.9659180516      1367.7185357275 
   31000       182.5729122576     10019.2173596562         0.8868568337      -524.1324500198     -1068.8918369067       160.7495010514       196.3527033046         3.3684077567      2155.5217408314     -3099.6964785386      -485.1877113121      -355.7871364964      1152.1030941456 
   32000       176.8645763148      9984.3130629249         0.8899572086      -521.4798302788     -1049.2067365535       167.8532477417       209.1946005235        -3.8355748765      2171.3400795561     -3098.8421044943      -494.9169850041      -870.2714697416     -2395.3665848103 
   33000       185.5094911174     10089.5137597376         0.8806778597      -494.9737014152     -1048.4952254638       154.5082964009       215.3649656974        -9.4116944424      2172.8013634944     -3099.3572373971      -482.4009192169      -402.6169364216       627.6573025167 
   34000       192.9769136284     10130.6678441294         0.8771002584      -449.4517424232     -1025.2544935083       182.6845057327       200.0915442944         1.2197605634      2170.8280456652     -3099.3132279066      -480.7651218574      -736.9514967984     -1945.9134159472 
   35000       203.7690974906      9941.2971257175         0.8938080485      -415.8418867868     -1023.8462574398       169.7934711570       202.8313216324         4.7407239662      2181.0046134445     -3099.3034635306      -482.9129241093      -348.9446369395       461.4124627685 
   36000       198.6672119550     10054.2475495494         0.8837669194      -426.8829540586     -1019.6643652815       168.1320128244       206.7721320057        -2.3261196790      2191.0526779365     -3099.1973753223      -484.0976930469      -382.7365352604       301.0717559919 
   37000       199.6576915790     10172.4769837521         0.8734953540      -380.1000269957      -975.8368222679       190.6868530920       226.4491755196         0.0831209600      2197.0878151345     -3100.0870252727      -490.0567617013      -683.5609095018     -2045.5029548041 
   38000       216.1991442135     10218.8803155785         0.8695288632      -300.7135690386      -945.8065994934       198.4624879278       230.5964838899         1.4433485024      2198.6640341852     -3099.2217254475      -475.7512285512      -703.0790702370     -2699.8618063661 
   39000       215.3976164572     10036.1762539626         0.8853582439      -316.5252771086      -959.2267163701       188.6610402698       221.2052220279         3.1979430016      2193.4387919926     -3098.0066873447      -467.7230263174      -281.0520023916       242.3578622633 
   40000       228.4953650647      9968.7493833800         0.8913466516      -252.6755178323      -934.4578996762       197.8281516832       238.1884502977         3.0146209551      2196.7814416274     -3099.6097633269      -470.6608009127      -296.5627001392      -301.8708178804 
   41000       220.3422187955     10128.9048887079         0.8772529194      -297.6912116026      -955.1463101277       180.9103054557       234.7259290810         9.5728783229      2194.3380829780     -3098.6015392724      -476.0919666931      -293.2116549889        30.3247093618 
   42000       231.9565424131     10125.5233197416         0.8775458910      -229.6041147242      -921.7139259052       188.8810940032       238.4601638478         6.7024555189      2210.0292061129     -3100.0292317053      -465.7576136828       217.1200310149      3025.1440491811 
   43000       224.5255572861     10370.1951010639         0.8568412934      -232.7868692715      -902.7241749494       195.2492368523       245.8268794415        -0.7406806208      2215.7598318711     -3099.2698682773      -459.5495742162       235.3715917697      3095.4946680937 
   44000       228.0334262566     10394.6328030284         0.8548268661      -181.9423500675      -862.3464031177       197.2867709035       270.6474770627         4.1880543357      2230.9965172818     -3098.9853022633      -466.4799204380      -319.4562979679      -907.1136640030 
   45000       234.4363619269     10375.5435025356         0.8563996075      -166.4505671351      -865.9596411158       207.0664575655       263.7615943482         8.5555118431      2218.9360843734     -3098.2683307851      -466.0109584609      -152.3854680161        92.9514249709 
   46000       264.4427992055     10413.6880834201         0.8532626782       -60.2484356062      -849.2904428816       221.1676356902       251.6387251740        12.9631504040      2223.8996473908     -3099.8284220038      -459.1311795368      -113.8752286895      -353.1029711855 
   47000       250.7617136113     10495.7756755170         0.8465893001       -60.6826677567      -808.9031768805       238.0930431561       263.9162076574         6.8938579718      2228.1733200159     -3099.6849341097      -446.2946715719      -433.0310424335     -2432.5346376228 
   48000       251.8478852256     10373.5445542562         0.8565646330       -50.0489642994      -801.5103823586       228.3510885410       274.8025825335        10.9586980004      2262.9903131411     -3099.4973880342      -479.1156765404      -495.3519418619     -2943.4220103400 
   49000       259.7842308223     10324.0909898966         0.8606676745       -55.3647842812      -830.5065977939       211.9405343442       278.0701179811         7.5833076868      2240.6192753254     -3098.9990205412      -469.7208125903         7.9598437015       420.5764338466 
   50000       249.8395750360     10541.5303381984         0.8429147475       -57.1278592761      -802.5968997475       232.2520411906       264.5022928724         3.7752252812      2253.6302627326     -3098.0858334439      -458.6708883805      -201.8694819628      -941.4860398578 
   51000       276.0324647130     10512.1034374810         0.8452743484        32.9985236028      -790.6246216848       236.1726952041       273.0987140710         4.7641084604      2258.7335909586     -3098.3821368249      -465.0115935540       176.2192809769       934.2012649174 
   52000       257.9138633784     10822.9270232904         0.8209989187        30.9584174024      -738.6026108262       249.2764198494       299.4288684230         2.7580228359      2232.2812136026     -3098.7028944299      -423.6442411071       -79.1044113836      -697.3006196970 
   53000       265.4606031618     11083.0412521856         0.8017304259        70.2914868250      -721.7874345926       254.2310724205       289.3479075320         5.8883712481      2252.4242429465     -3099.8208224640      -423.8582062758      -151.2555625616     -1370.6643942494 
   54000       268.2900196767     10717.9005398152         0.8290440232        97.6244682041      -702.8968403499       239.0952229708       302.3979209172         4.9598800587      2283.2763303440     -3098.9622081937      -433.6639864469       448.4264304593      2244.2767071194 
   55000       280.3950234496     10589.2210981827         0.8391185056       118.1154845277      -718.5246236446       255.7441907351       294.6091242404         6.1036236916      2292.0715106536     -3099.1672064855      -467.8858664797        97.5794168802      -132.9772601655 
   56000       278.1797977322     11039.1579736139         0.8049174951       184.4359404702      -645.5943974535       274.0843543544       296.4838017882        13.8000993346      2302.1895282538     -3097.3204320049      -434.8317491796        11.8969593884     -1071.7053317633 
   57000       286.6105377086     11031.1966355964         0.8054984130       219.1443746790      -636.0415281300       271.2662927743       307.9456159656         6.0889849779      2306.1526486085     -3097.3053010872      -430.1897693691        67.0978342017      -945.1005753191 
   58000       289.6103469635     11120.2985879669         0.7990443164       233.3909752523      -630.7457309934       268.1397890196       316.5185848383         8.1378379229      2308.0486401467     -3097.6644697165      -433.9261132043       439.9379815321      1273.5809862988 
   59000       288.2896922573     11334.4286910663         0.7839487658       279.6769097385      -580.5192390655       277.4076650762       344.1490335468         7.6702355875      2297.1522710968     -3097.6903496693      -409.2080947034        83.2504246136     -1188.2956888377 
   60000       281.0953008845     11330.6287068607         0.7842116809       258.8051942677      -579.9243953145       283.0032582479       325.7757713245        11.0674716836      2325.0458664388     -3099.5817902084      -425.2349728009       296.0848833619       225.6017083440 
Loop time of 65.1398 on 64 procs for 50000 steps with 1002 atoms

Performance: 66.319 ns/day, 0.362 hours/ns, 767.580 timesteps/s
99.4% CPU use with 64 MPI tasks x no OpenMP threads

MPI task timing breakdown:
Section |  min time  |  avg time  |  max time  |%varavg| %total
---------------------------------------------------------------
Pair    | 7.2161     | 11.193     | 15.879     |  69.6 | 17.18
Bond    | 0.21828    | 0.27265    | 0.32118    |   4.0 |  0.42
Kspace  | 7.4684     | 12.233     | 16.25      |  67.0 | 18.78
Neigh   | 22.047     | 22.441     | 22.682     |   3.9 | 34.45
Comm    | 16.924     | 17.173     | 17.58      |   4.7 | 26.36
Output  | 0.029516   | 0.02955    | 0.030161   |   0.0 |  0.05
Modify  | 1.0653     | 1.1045     | 1.1474     |   1.9 |  1.70
Other   |            | 0.6922     |            |       |  1.06

Nlocal:    15.6562 ave 24 max 10 min
Histogram: 7 3 13 10 8 11 2 7 2 1
Nghost:    4700.58 ave 4784 max 4602 min
Histogram: 1 2 4 8 15 7 12 8 4 3
Neighs:    11868.8 ave 20353 max 5697 min
Histogram: 8 4 9 12 10 5 5 5 3 3

Total # of neighbors = 759605
Ave neighs/atom = 758.089
Ave special neighs/atom = 5
Neighbor list builds = 50000
Dangerous builds not checked
unfix anneal

# RUN EQUILIBRATION PHASE AT FINAL TEMP
fix anneal all npt temp ${FINAL_TEMP} ${FINAL_TEMP} 100.0 iso ${pressure} ${pressure} 1000.0 # NPT, nose-hoover 100 fs T relaxation
fix anneal all npt temp 298.0 ${FINAL_TEMP} 100.0 iso ${pressure} ${pressure} 1000.0 
fix anneal all npt temp 298.0 298.0 100.0 iso ${pressure} ${pressure} 1000.0 
fix anneal all npt temp 298.0 298.0 100.0 iso 1.0 ${pressure} 1000.0 
fix anneal all npt temp 298.0 298.0 100.0 iso 1.0 1.0 1000.0 
run ${nSteps_ramp}
run 50000
PPPM initialization ...
WARNING: Using 12-bit tables for long-range coulomb (../kspace.cpp:321)
  G vector (1/distance) = 0.186226
  grid = 8 8 8
  stencil order = 5
  estimated absolute RMS force accuracy = 0.00739689
  estimated relative force accuracy = 2.22755e-05
  using double precision FFTs
  3d grid and FFT values/proc = 343 8
Per MPI rank memory allocation (min/avg/max) = 10.54 | 10.55 | 10.55 Mbytes
Step Temp Volume Density TotEng PotEng E_bond E_angle E_dihed E_coul E_long E_vdwl Enthalpy Press 
   60000       281.0953008845     11330.6287068607         0.7842116809       258.8051728425      -579.9244167397       283.0032582479       325.7757713245        11.0674716836      2324.8573207621     -3099.3932659568      -425.2349728009       296.0847747096       225.6011804809 
   61000       301.7724695346     10684.7570773365         0.8316156670       253.9242993593      -646.5016370528       257.2259378563       313.8114135466        14.6372647806      2317.0028568779     -3098.7875257535      -450.3915843607       422.3698659168      1080.9834448289 
   62000       286.8931244800     11144.0577915043         0.7973407487       215.0372627072      -640.9918199275       270.0035088474       300.3327767961        11.1495561910      2300.5896167712     -3098.2047305302      -424.8625480030       237.2417735941       136.6224176012 
   63000       298.1859713729     10987.9825200454         0.8086663195       285.9581941783      -603.7663817994       283.2099989311       322.7885160403        12.6013483787      2300.3986293515     -3098.0808522349      -424.6840222662        62.7419804298     -1392.9383261316 
   64000       306.1334146902     10983.9588842246         0.8089625496       328.8947356188      -584.5433490898       273.2660704853       329.4132069150        12.3732443109      2342.3981216845     -3098.2596624806      -443.7343300049       245.1587263434      -522.7300552521 
   65000       297.0748919694     11166.5177113464         0.7957370071       314.9477201977      -571.4616272109       292.2124498243       348.2753494759         5.8820907412      2298.2237886797     -3097.2231622563      -418.8321436757       108.5109364849     -1267.6327054496 
   66000       292.4801176472     11420.1740208005         0.7780626957       278.6020273819      -594.0974744000       283.4218208503       334.9030624409        11.8333841386      2289.7162610115     -3097.6744431199      -416.2975597216      -237.1827839797     -3096.8483432672 
   67000       301.9123672586     11364.9679952355         0.7818421827       346.0786172590      -554.7647447034       273.0419757995       346.2624216410        11.7102215581      2340.5659130349     -3098.0918684431      -428.2534082939       168.0665461981     -1074.0026341148 
   68000       298.7674546802     11377.6425246704         0.7809712218       263.8846148724      -627.5749856827       265.5397711390       293.8640447472         2.1110796974      2342.6385939029     -3097.6123359855      -434.1161391838        -1.4103239374     -1598.8244860274 
   69000       293.1880620082     11412.8575085869         0.7785614932       269.8078835664      -605.0039761294       262.4496099534       321.0430816484        15.0292574437      2316.6658443059     -3097.5727204025      -422.6190490782       146.6494584533      -739.9354629240 
   70000       298.3453772094     11247.5342117812         0.7900052773       260.0500966655      -630.1501129901       261.7118160217       324.7929443194         5.0457070258      2329.1765901080     -3097.4191922366      -453.4579782285        72.2286766048     -1145.0169285213 
   71000       290.2582879454     11085.9818033049         0.8015177673       272.2854477540      -593.7845788712       257.2462294833       332.3130915392        20.8364297712      2327.1122493844     -3098.1727561678      -433.1198228814       526.5674078478      1572.7710252536 
   72000       296.3492296528     11581.1528945994         0.7672475672       331.9475346217      -552.2965881993       283.7503927655       330.4395934653         7.7523407540      2344.8469627234     -3098.0621605187      -421.0237173888       649.4645873829      1879.9200080901 
   73000       303.1926155253     11537.7078430365         0.7701366254       298.5417038837      -606.1216511553       261.9144280612       328.0227277781        13.8718843968      2308.0905517587     -3097.7884995222      -420.2327436280       366.7437070738       405.3234249117 
   74000       294.8097331097     10960.9417966666         0.8106613052       265.7363163756      -613.9142707311       278.5211244914       305.4805008254        17.4287567922      2324.4491191407     -3098.5666571025      -441.2271148783      -129.6293868775     -2473.2910839531 
   75000       298.3614041547     11350.7863566183         0.7828190140       346.5635104943      -543.6845202143       277.8288543345       337.2961409798        10.5011294442      2353.9554081487     -3097.8588185322      -425.4072345893       438.7417598879       556.8351178340 
   76000       292.4768631939     11705.8656605226         0.7590734117       302.1323708401      -570.5574203339       270.8275827430       328.8812294064         9.5242975421      2350.3248764440     -3097.5457589195      -432.5696475499       211.7550588187      -529.3951952796 
   77000       292.9930994554     11343.6155104008         0.7833138716       314.6933179548      -559.5368142580       285.3111854643       322.7948437575        11.3579018046      2352.4782636070     -3099.2112895805      -432.2677193110       139.5633881301     -1058.6026735595 
   78000       302.2606979252     11209.5091476483         0.7926851450       295.4810609824      -606.4016468393       268.4312329047       307.0898528265        16.8490187127      2343.2856863663     -3098.5845760694      -443.4728615801        -4.7149181729     -1836.2947216442 
   79000       292.3102787238     11595.1261267317         0.7663229607       336.7839202075      -535.4088177471       294.0738036791       322.2229554503        17.5445333438      2348.1603237662     -3096.3867813330      -421.0236526535       342.6695553885        34.8050268028 
   80000       291.0154010285     11470.0343079067         0.7746804539       244.4656040687      -623.8634896538       248.7039079667       326.5602110890        12.7244834887      2318.7113552160     -3097.4418376107      -433.1216098035       599.6894446192      2123.5451492911 
   81000       304.3063018734     11247.9656589892         0.7899749744       327.1844701029      -580.8018920827       266.1211400082       318.6400408188        13.6361062659      2337.9635671234     -3096.8334365179      -420.3293097811       623.1439874138      1804.1906973605 
   82000       292.6985744155     11508.2078856276         0.7721107814       274.0268099587      -599.3245211319       265.7677484421       321.3225042886        14.0701688502      2316.2903769038     -3098.2341755740      -418.5411440427        30.4843162928     -1451.0793463047 
   83000       312.7617490744     11285.8296426576         0.7873246066       350.6566067441      -582.5590415174       263.0859240568       324.9096369853         9.4986050201      2365.8893590795     -3098.1746774154      -447.7678892438       575.0265128945      1363.1863430119 
   84000       292.5814488536     11022.0574655626         0.8061663089       269.3375082189      -603.6643446905       266.0762817576       318.1177748210        11.2455236875      2343.8072463952     -3098.2683411088      -444.6428302429       302.7446451316       207.8263913021 
   85000       293.9347291478     11385.9989052196         0.7803980536       274.0261033940      -603.0136548884       258.2286301145       321.8273366792        10.3507104739      2317.9410603711     -3096.3434100435      -415.0179824835       190.4363288718      -503.3917881866 
   86000       290.0147898415     10895.5827220547         0.8155242001       202.5594701767      -662.7840090318       254.8411571556       298.7695915554         8.5709575489      2315.4691044217     -3097.8383918637      -442.5964278497       629.5203867478      2686.9635211862 
   87000       300.8874820774     11670.0515445805         0.7614029252       281.5078273661      -616.2774915598       235.2109398458       321.9325557568         9.5072233470      2332.0390112331     -3098.5014125732      -416.4658091693       162.8362199019      -697.2654746418 
   88000       303.4126796873     11428.7975635666         0.7774756123       338.7577909985      -566.5621894757       270.3585334536       339.7173610029         7.3733694645      2332.3494654106     -3098.4147921516      -417.9461266556       676.4689715165      2026.1379420805 
   89000       297.9998370170     11067.9846926369         0.8028210763       288.3855916893      -600.7835982982       253.2499134783       321.2409573350         7.3524665875      2358.1905033681     -3097.8649387121      -442.9525003550       727.1391670617      2718.1675864516 
   90000       293.9304291818     11488.5290454054         0.7734333393       267.4653732969      -609.5615547863       250.8319489721       324.2672702617        11.0320186082      2321.8877258311     -3098.1412119254      -419.4393065340        48.1788182764     -1308.7951859760 
   91000       304.1906821810     11063.4049688857         0.8031534061       267.2794026247      -640.3619745795       243.6055871456       317.3994951766         6.4075978982      2295.7014646736     -3098.9342269335      -404.5418925399       690.7753564799      2624.7295833815 
   92000       309.0242659462     11224.3697489515         0.7916356626       369.7483574822      -552.3154227817       301.0226727123       331.1962853062        13.9086800230      2311.7971426679     -3097.8232589656      -412.4169445255       131.5570655193     -1455.0838685821 
   93000       285.2119418134     11255.2178086152         0.7894659646       262.7564877890      -588.2562973709       270.4289222020       317.0607007747        13.7399983658      2327.1746094592     -3097.2220094626      -419.4385187101       951.6010099283      4196.5404728435 
   94000       293.5711426778     11043.1171925754         0.8046289131       301.6570890300      -574.2978032665       288.5342575116       312.8197968537        16.4473174490      2348.9808511534     -3096.5850088036      -444.4950174306       167.7048674088      -831.7299691857 
   95000       296.9447285410     11131.5546791049         0.7982363326       278.2295710803      -607.7913958804       262.8945765834       320.5925722103         7.9554357894      2343.9679405519     -3098.1877581789      -445.0141628365       513.1857863824      1447.2888776180 
   96000       296.8797327129     11104.6243797716         0.8001721697       268.7941860094      -617.0328469935       268.3117887967       307.2558473476         6.8389374658      2333.4668918971     -3097.9640738193      -434.9422386815       571.6848058064      1870.2775535282 
   97000       305.4157402798     11257.0020130693         0.7893408363       289.6359168864      -621.6607774760       271.2998800108       315.2595018632         9.2240471551      2312.1689198654     -3096.9647695632      -432.6483568073       261.8129711766      -169.4745444424 
   98000       298.2650186798     10898.1014493968         0.8153357192       286.3039339550      -603.6565026544       303.5850381827       318.4369577471         9.7863116590      2321.7983303238     -3098.9737782206      -458.2893623463      -274.6524558499     -3529.4120459097 
   99000       301.6706047683     11331.1374765642         0.7841764697       304.1932635330      -595.9287297203       281.2277187317       308.8983628332        13.5196962935      2313.9778671097     -3097.1816039820      -416.3707707065       254.4919936921      -300.7586222938 
  100000       288.7823409248     11177.6197998246         0.7949466472       254.8807931133      -606.7853162819       272.2469348613       313.3368480395         9.3609363813      2328.9534102679     -3097.4501095337      -433.2333362982       373.4492356323       727.3507524990 
  101000       305.3331986807     11099.9176684596         0.8005114677       319.8108577316      -591.2395497617       289.4669944969       306.5809058308         2.6132805009      2355.8644645064     -3098.1559514007      -447.6092436959       311.1373577753       -53.5795095306 
  102000       299.1280192869     11415.6692339420         0.7783697304       275.1208608209      -617.4145891122       260.8223193358       324.2321229386        12.8420493232      2280.2841382624     -3098.1266160055      -397.4686029667       381.2445647728       637.4338661002 
  103000       289.1974543116     11172.6469536151         0.7953004709       236.0167608158      -626.8879601088       264.0241451598       317.5612963152        13.7598813739      2296.5385736948     -3098.2412212785      -420.5306353739       410.2206449313      1069.1185598394 
  104000       294.7620873567     11350.4513196321         0.7828421208       283.8206103525      -595.6878117916       267.7116470970       313.0790717658        13.4191862334      2328.2878928711     -3097.7477998341      -420.4378099250       202.8223298906      -489.3130284068 
  105000       288.0819661572     11130.8278275741         0.7982884581       223.1506483198      -636.4256892455       257.8082340424       322.0095040308        14.0041488833      2317.1061700553     -3098.8290029264      -448.5247433309        67.4491442445      -959.1564538539 
  106000       293.9719456170     11681.0995983357         0.7606827858       310.2761502411      -566.8746542020       291.4728375080       311.4163625401         9.1942212655      2340.3538179944     -3096.3298889220      -422.9820045880       -14.2412165179     -1904.9269541206 
  107000       296.6612947645     11443.8764138734         0.7764511833       285.4627094844      -599.7125503645       262.8715387050       316.9602050634         5.9441896111      2328.1124949783     -3098.4730364719      -415.1279422503       463.5342094331      1066.9531954529 
  108000       292.0082118233     11368.2883079779         0.7816138316       248.8830903760      -622.4083431220       274.0841083752       304.9145890783        17.4491246135      2298.2848231895     -3098.8236456510      -418.3173427275       338.1912494528       538.6667498716 
  109000       297.0184876754     11483.2893156426         0.7737862506       276.9443301454      -609.2967186462       263.2860955794       331.6529355985        10.9766788282      2308.9073103298     -3098.8234043409      -425.2963346413      -237.3517507103     -3070.9377893098 
  110000       293.6653047279     11161.5760939753         0.7960893075       285.3894499897      -590.8464021711       278.7361093908       332.5034807217        15.8526922887      2313.7765105618     -3098.7318342940      -432.9833608401       171.5934105956      -699.0781578547 
Loop time of 61.2456 on 64 procs for 50000 steps with 1002 atoms

Performance: 70.536 ns/day, 0.340 hours/ns, 816.386 timesteps/s
99.3% CPU use with 64 MPI tasks x no OpenMP threads

MPI task timing breakdown:
Section |  min time  |  avg time  |  max time  |%varavg| %total
---------------------------------------------------------------
Pair    | 7.0499     | 10.467     | 14.184     |  64.8 | 17.09
Bond    | 0.25636    | 0.27998    | 0.30539    |   2.3 |  0.46
Kspace  | 8.2311     | 11.947     | 15.362     |  60.8 | 19.51
Neigh   | 21.171     | 21.547     | 21.835     |   3.7 | 35.18
Comm    | 15.08      | 15.367     | 15.752     |   4.6 | 25.09
Output  | 0.02699    | 0.027139   | 0.027544   |   0.1 |  0.04
Modify  | 1.0494     | 1.0972     | 1.1395     |   1.9 |  1.79
Other   |            | 0.5133     |            |       |  0.84

Nlocal:    15.6562 ave 24 max 8 min
Histogram: 1 1 6 17 5 21 9 1 2 1
Nghost:    4746.58 ave 4827 max 4655 min
Histogram: 2 2 9 6 6 16 5 11 2 5
Neighs:    12056.8 ave 22888 max 5658 min
Histogram: 6 10 7 13 10 8 6 3 0 1

Total # of neighbors = 771637
Ave neighs/atom = 770.097
Ave special neighs/atom = 5
Neighbor list builds = 50000
Dangerous builds not checked
unfix anneal
undump anneal

# RETURN TO LESS FREQUENT NEIGHBOR BUILDS
neigh_modify every 1 delay 10 check yes one 10000 # More relaxed rebuild criteria can be used

#===========================================================
# RUN EQUILIBRIUM SIM
#===========================================================

# UPDATE RUN PARAMETERS AND CREATE FIX
fix equil all npt temp ${FINAL_TEMP} ${FINAL_TEMP} 100.0 iso ${pressure} ${pressure} 1000.0 # NPT, nose-hoover 100 fs T relaxation
fix equil all npt temp 298.0 ${FINAL_TEMP} 100.0 iso ${pressure} ${pressure} 1000.0 
fix equil all npt temp 298.0 298.0 100.0 iso ${pressure} ${pressure} 1000.0 
fix equil all npt temp 298.0 298.0 100.0 iso 1.0 ${pressure} 1000.0 
fix equil all npt temp 298.0 298.0 100.0 iso 1.0 1.0 1000.0 

# CREATE COORDINATE DUMPS FOR EQUILIBRIUM
dump equil all custom ${coords_freq} equil.lammpstrj id type x y z mol
dump equil all custom 1000 equil.lammpstrj id type x y z mol
dump_modify equil sort id format float %20.10g

# RUN EQUIL
run		${nSteps_equil}
run		100000
PPPM initialization ...
WARNING: Using 12-bit tables for long-range coulomb (../kspace.cpp:321)
  G vector (1/distance) = 0.186534
  grid = 8 8 8
  stencil order = 5
  estimated absolute RMS force accuracy = 0.0072873
  estimated relative force accuracy = 2.19455e-05
  using double precision FFTs
  3d grid and FFT values/proc = 343 8
Per MPI rank memory allocation (min/avg/max) = 11.04 | 11.05 | 11.05 Mbytes
Step Temp Volume Density TotEng PotEng E_bond E_angle E_dihed E_coul E_long E_vdwl Enthalpy Press 
  110000       293.6653047279     11161.5760939753         0.7960893075       285.3866336032      -590.8492185576       278.7361093908       332.5034807217        15.8526922887      2318.8656924259     -3103.8238325446      -432.9833608401       171.5777117033      -699.1572983805 
  111000       292.1564532942     11263.5461336713         0.7888822293       239.9297967774      -631.8039582664       255.5535664827       317.5545762113        14.1805213919      2309.4789348451     -3103.9162737844      -424.6552834131       170.4249614906      -423.1204217478 
  112000       298.7037414166     10836.1269519527         0.8199988264       250.6666279398      -640.6028655619       264.6862515827       322.9723344369        15.0283426042      2283.2187400335     -3102.8598229418      -423.6487112775       340.7353627968       569.9333735741 
  113000       298.3796003569     11589.5562313226         0.7666912526       262.3242841617      -627.9780402086       266.1524348653       301.9617481085         8.8688595015      2306.4841040023     -3103.5502559623      -407.8949307239       -49.7119378312     -1846.1301483497 
  114000       314.3728247666     11247.2340298587         0.7900263620       325.2047187728      -612.8180424139       248.3503670329       336.0862013752        10.2944249109      2337.8010655608     -3103.0336560844      -442.3164452093        17.4980039215     -1875.9244865184 
  115000       299.4239742113     11229.9464853319         0.7912425402       256.9358717271      -636.4826458044       258.3741524232       303.9577798953        12.6764260798      2306.4058705248     -3103.3456774161      -414.5511973113       409.4024518190       930.9386960149 
  116000       297.4112196388     11425.4306723120         0.7777047219       314.7430772854      -572.6698015491       272.9554913067       325.2114115748        10.7375905475      2333.3552612510     -3104.1087556488      -410.8208005802       264.2680811358      -302.9199145636 
  117000       283.7438542250     11245.3811909604         0.7901565303       235.6185917891      -611.0137270428       244.6034510487       329.7440775815        10.5469183426      2332.6968639154     -3103.8283564544      -424.7766814766       558.3331545987      1967.7435289663 
  118000       297.8184123968     10956.8393310148         0.8109648335       259.0321541580      -629.5957027063       246.1571027085       306.0525590364         8.4211807274      2362.2396267768     -3103.8341297289      -448.6320422265       777.3586906058      3243.7118025511 
  119000       297.1491104208     11329.8292048748         0.7842670196       275.9788887141      -610.6519110316       263.9254692366       308.0791503490         1.4721920615      2341.0825137762     -3103.9525987622      -421.2586376927       271.2858824885       -28.4021932418 
  120000       296.4801254821     11390.2664772457         0.7801056631       275.7867767274      -608.8479118725       265.7675127977       298.6315698167        14.0095010562      2340.6750787079     -3103.5086577281      -424.4229165229       551.7268962826      1661.1355555736 
  121000       299.8898855574     11036.1885108984         0.8051340710       303.4307256954      -591.3779738523       265.2834791407       326.7107010030        11.2587913020      2348.0901019347     -3103.1356690993      -439.5853781335       103.4274306841     -1242.6309065091 
  122000       299.0109894893     11126.7124203666         0.7985837189       283.1848413208      -609.0014161719       291.7848805155       307.9914530765        14.6010047674      2304.1383146495     -3102.6757552798      -424.8413139009       279.9113916573       -20.1726481758 
  123000       308.6896824381     11635.5361478350         0.7636615340       335.1989198812      -585.8665331692       259.9325385424       328.1585447563        11.0827393324      2317.9227271818     -3102.3271335135      -400.6359494687        88.0876871954     -1456.2307519550 
  124000       302.5457722092     11353.8367157640         0.7826086992       270.6828703810      -632.0504394837       248.3143107873       310.9556905491         3.6238721248      2344.8141956699     -3101.4254012221      -438.3331073928       291.4941342370       125.6839791232 
  125000       278.1616828217     11493.8415765366         0.7730758532       200.8486045228      -629.1276822968       247.6606496429       314.3039691374         6.9294091186      2318.1799351163     -3102.9500400759      -413.2516052361       334.8395910041       799.3454152057 
  126000       303.4219470416     11355.7743969856         0.7824751596       304.1575306191      -601.1901017023       256.2057690742       325.0127533726        20.9845528211      2324.3558615346     -3102.8085074180      -424.9405310867       556.8893358044      1526.0446972464 
  127000       288.6007309067     11209.7139953252         0.7926706593       255.0190376099      -606.1051854733       255.6405055845       328.3317762660         8.9674340646      2311.5283352354     -3103.9809993033      -406.5922373205       399.1655318722       881.7260318591 
  128000       293.5948739554     11785.5811401837         0.7539391802       330.4250946506      -545.6006068150       271.1533886098       322.7592958978        18.1741371304      2346.1298322904     -3101.8057349458      -402.0115257976       303.4908795395      -156.7030439540 
  129000       299.5967284874     11465.2182224791         0.7750058665       343.6947056006      -550.2392745608       274.6255952092       344.8548904780        14.1006964223      2322.8069594311     -3103.8455567471      -402.7818593544       331.5525579912       -72.6168311948 
  130000       291.6467726998     11346.8021764392         0.7830938837       254.0391572586      -616.1738174861       259.7093073231       311.0457363026         4.2073466639      2336.1416521001     -3103.3525133785      -423.9253464973       215.0869724540      -235.3869866863 
  131000       310.8554894096     11415.9441780340         0.7783509839       299.5457784488      -627.9819896481       273.8352691405       299.7012209883        -0.6671916803      2311.2626841393     -3103.1750793594      -408.9388928765       497.7111036398      1190.2547914040 
  132000       299.4109447577     11245.4363046519         0.7901526577       290.3910397782      -602.9886005888       252.4221657196       325.7126192342        10.2150031799      2331.1657743734     -3100.6791015712      -421.8250615247       396.2736849261       645.6134699546 
  133000       291.0019051554     11842.9984151864         0.7502839291       310.4549633497      -557.8338615101       283.6101845665       320.1607162378         7.0505993220      2315.4270909268     -3103.1492081971      -380.9332443660       234.3803469491      -440.4556756194 
  134000       313.1281629732     11294.0554398894         0.7867511746       355.9474834700      -578.3614672337       275.8040459293       312.3519001093        13.3895952689      2345.2954280260     -3103.2396583134      -421.9627782539       243.0928251032      -685.1626584236 
  135000       289.8862402587     11751.8572822406         0.7561027308       272.7340907195      -592.2258234185       279.1764118432       304.7418418930         5.0551917938      2320.2650928302     -3103.9551210227      -397.5092407560       213.6519675712      -344.7257264799 
  136000       288.2209536462     11392.4534728739         0.7799559072       286.0006004569      -573.9904467075       277.2786522936       306.2171983001        25.3833994454      2345.6999799598     -3104.0837450124      -424.4859316940       -94.9347331813     -2292.7574035971 
  137000       308.2208893208     11698.4692346524         0.7595533403       372.7212654610      -546.9454069708       294.3751162789       318.5398191702        15.6069418287      2355.7370512518     -3103.3909571310      -427.8133783694       324.9485957663      -280.0106728134 
  138000       302.4445316167     11124.6414086129         0.7987323867       322.6650786634      -579.7661504467       278.5359641771       320.1138944676        19.8365542716      2325.7216178510     -3102.7884951233      -421.1856860907       576.8127717140      1566.4778619197 
  139000       312.5047605516     11622.1270465325         0.7645426132       320.0047414465      -612.4441068096       258.3042063531       299.2730905834        14.9997982738      2331.7271208971     -3101.6382816472      -415.1100412698        39.3267145140     -1655.9488082542 
  140000       284.6735982255     10909.8553710461         0.8144573032       186.3706420471      -663.0358384357       268.4178683255       293.6314857740         5.8502171290      2309.6461784795     -3104.5540529407      -436.0275352030       470.6166691317      1786.4856026382 
  141000       305.8461247295     11236.4756343354         0.7907827750       297.2834860890      -615.2973854607       275.1990891766       313.1830339448         6.3405798720      2325.2995278776     -3103.8469053924      -431.4727109393       468.7919802683      1046.5973484580 
  142000       300.3959782877     11316.6377095821         0.7851812183       274.4002458453      -621.9185285652       267.6919956097       307.2837922412         1.6417099340      2328.0014301557     -3103.4789310232      -423.0585254828       370.3773364889       581.5328855293 
  143000       304.3826144234     11388.1327536544         0.7802518267       343.3882399758      -564.8258228989       264.6031513254       333.1711819517        12.0177293360      2347.6163983809     -3101.9417740236      -420.2925098693       102.1398920281     -1452.5662106311 
  144000       321.7057197829     11264.3010488133         0.7888293597       317.0524714850      -642.8501148291       252.1988845817       303.2766489736         7.4304744227      2341.1694930439     -3102.3855941573      -444.5400216936       573.2191198438      1559.3458464670 
  145000       308.3401852678     11251.4219529137         0.7897323041       310.1428552368      -609.8797713512       248.5930345576       331.4720276327         8.2578963947      2338.8892941432     -3103.4218239100      -433.6702001694       265.8691706102      -269.8126862334 
  146000       290.0681622633     11154.0795594524         0.7966243504       258.5115652773      -606.9911660754       272.9849384762       329.1679687394        16.7377119817      2284.1160366266     -3104.3326484840      -405.6651734153       111.9323821945      -901.0785876511 
  147000       311.5341465648     10954.0898854947         0.8111683834       330.4655255846      -599.0872135289       286.5258961442       309.2741861142        12.7563827426      2340.1747884628     -3104.2157547847      -443.6027122081       428.5086375652       613.7123997020 
  148000       305.5995184523     11643.9840604390         0.7631074843       333.3645172178      -578.4805327759       263.4093102303       319.7699123117        14.6485403746      2336.8820793956     -3102.6104866817      -410.5798884065       356.1851662404       134.3849085183 
  149000       310.0146481449     11361.7467668934         0.7820638469       277.4293209442      -647.5895526723       250.7055770358       317.6937861531         9.9052594342      2298.5921335804     -3103.2409383629      -421.2453705130       513.7990018838      1426.4967094066 
  150000       287.9485203830     11372.3741807524         0.7813330130       255.4189376477      -603.7592256361       275.8422586771       321.0023359364        11.0072906644      2336.3058153265     -3104.1169693667      -443.7999568738      -325.2965545713     -3501.3569052970 
  151000       310.5168970052     11168.9815705160         0.7955614688       299.6034772223      -626.9140019529       262.3246911126       319.4196592075        10.5573125838      2321.3274833582     -3102.8880845180      -437.6550636970       316.7619594320       105.3390518636 
  152000       291.2121636471     11505.7029736531         0.7722788780       298.9450061389      -569.9711860868       269.5142067715       336.2627541611        15.2249543000      2324.3753066135     -3103.3254416330      -412.0229662999        24.0340653908     -1638.3360074932 
  153000       302.8858340692     11172.2454025026         0.7953290555       291.5325224253      -612.2154609091       268.3615553034       310.1594179090         8.8228546216      2340.6707580606     -3103.0081702360      -437.2218765678       530.3986587252      1466.0143751941 
  154000       287.1478120425     11346.0873437594         0.7831432206       251.4966244925      -605.2923925632       258.5598753628       320.0953273322        14.6390058368      2318.6309657816     -3102.5640094324      -414.6535574442       159.6850006974      -554.8500845683 
  155000       301.6743654928     11357.4839007273         0.7823573831       333.5401492828      -566.5930651858       286.6750484262       336.1989202905        11.5700036264      2345.3415279122     -3103.1398215925      -443.2387438486      -172.4511874008     -3054.8160370193 
  156000       298.0704984133     11410.3711333576         0.7787311455       291.6568139190      -597.7232148971       269.9141224646       305.2948556520        12.3545750955      2335.9013328792     -3104.3387490583      -416.8493519300      -361.2211522355     -3923.3436673029 
  157000       302.9371659618     11225.7295849159         0.7915397673       258.4768100660      -645.4243369001       263.3365899493       302.5311274609        16.1549571585      2293.1428975559     -3103.0864999968      -417.5034090279       850.2996494157      3614.9413495166 
  158000       290.6733560808     11287.7947255013         0.7871875419       267.8598544875      -599.4486486466       271.2257316612       306.3969422251        12.7997414111      2334.6290733185     -3102.3863772086      -422.1137600539        60.1214895276     -1261.9196899295 
  159000       300.0414000102     11213.6249008110         0.7923942046       277.3663175565      -617.8944694306       271.2836974207       312.2654644079         9.3701924956      2309.0260582774     -3103.4696200947      -416.3702619376       501.2872069407      1369.2183041860 
  160000       309.4561240439     11250.7963666007         0.7897762162       313.4755974659      -609.8767570428       264.0964538624       326.9817877493         9.3046580936      2330.4695698025     -3102.4021931420      -438.3270334088       280.5488311575      -200.6734548623 
  161000       289.5498941005     10997.4497020394         0.8079701771       221.7925674242      -642.1637601213       257.4989843687       309.0384233277         0.5632721035      2339.7136717372     -3103.0905806779      -445.8875309805       379.2475554225       981.7220586046 
  162000       281.7161836533     11292.0275659089         0.7868924630       271.6209797093      -568.9611942037       265.2242302514       349.8789214461        10.8656111494      2311.4650312754     -3103.1315831325      -403.2634051935       386.5762365034       698.0411363931 
  163000       313.2014044572     11335.8041342703         0.7838536445       327.7181634188      -606.8093245555       257.7566828362       336.5747669985         1.5232620016      2322.9976103780     -3103.7066045515      -421.9550422184        58.5030491385     -1628.4379530198 
  164000       305.0882321848     11817.0213616131         0.7519332590       326.2006402988      -584.1188384031       271.4011783180       316.8626898021        10.0945979536      2306.3090642839     -3103.9434231921      -384.8429455685       302.4502823124      -137.8117507769 
  165000       286.2241747266     11145.4161267322         0.7972435737       246.6470859295      -607.3859905450       271.1813879880       316.9229987128        11.7107636021      2318.3306680635     -3103.7868771639      -421.7449317475       -22.8705451922     -1658.1163565753 
  166000       290.6758290479     11129.8358062268         0.7983596109       237.3208234173      -629.9950585333       274.6976913647       300.3304219259        10.0070995966      2302.2419715947     -3102.8003481794      -414.4718948358       375.8899418970       853.6931709971 
  167000       292.6008914182     11278.3322990260         0.7878479857       245.7657095272      -627.2941559287       254.7152625190       318.6270060933        13.3878801398      2319.4051583802     -3103.8996285902      -429.5298344708       242.0988198336       -22.2934391012 
  168000       309.6033984342     11185.3110700443         0.7944000241       300.3255735023      -623.4662169860       259.8746211104       321.1747400225        16.1150985534      2323.7641165026     -3103.7215007898      -440.6732923850        78.4732934887     -1360.0032318646 
  169000       305.5355245176     11697.5947982564         0.7596101196       318.7366238249      -592.9174816514       255.7884535880       325.4564408596         5.7043117497      2334.0819164675     -3104.1822196912      -409.7663846249       382.2927086422       372.5500903983 
  170000       300.4259648119     11130.3521830751         0.7983225721       289.2341004501      -607.1741474774       270.8033882079       298.7557151392        16.5346099917      2325.2721534342     -3103.3633104621      -415.1767037883       344.0971011499       337.9829261689 
  171000       296.6997113154     11222.9248853766         0.7917375795       334.2543050732      -551.0355817291       280.5034140313       336.3014315667        14.7699075829      2347.6974863252     -3100.7934445066      -429.5143767287       485.9075442468       926.5518878504 
  172000       291.1083464428     11196.0080621883         0.7936410312       304.6388688934      -563.9675545069       278.6619900225       329.0153218325         9.5092041638      2332.5346032314     -3102.8352884493      -410.8533853077       462.3790522049       966.0581067286 
  173000       298.6082191713     11341.8207407267         0.7834378260       263.4660806808      -627.5183944182       247.9645284968       311.0801423450        10.0035740333      2336.4425947025     -3103.1035366635      -429.9056973324       361.3092210512       591.5231079017 
  174000       295.6434396300     11500.5652686794         0.7726238820       304.4736790826      -577.6645139191       278.7020807410       334.4434688195        20.1733289175      2305.6440661753     -3103.0249599240      -413.6024986485        54.8119207692     -1488.5277943936 
  175000       292.2929005411     11088.7375911421         0.8013185731       284.3074130638      -587.8334720282       274.6859632627       331.6622215547        12.3531871972      2338.9597061239     -3104.5812330338      -440.9133171328       371.4279800620       538.7195020052 
  176000       295.4688925174     11093.8582848768         0.8009487011       265.2615077930      -616.3558731295       262.9018297217       324.6943606203         7.5289668259      2325.6415814171     -3102.9864063069      -434.1362054076       381.5983053573       719.0491901301 
  177000       300.2384600371     11169.8239711492         0.7955014695       316.2044330463      -579.6443398479       280.6644785419       322.9904708615         8.2956164104      2369.3742081709     -3101.6014838738      -459.3676299588       216.7770448660      -610.3568357680 
  178000       304.9135658364     11372.7836612598         0.7813048809       362.0303261085      -547.7679847395       285.2094375681       336.5280507936        16.7271846208      2346.4297098149     -3103.5571884797      -429.1051790572       310.4425754544      -311.0311776891 
  179000       291.0081474886     11317.7597652306         0.7851033745       266.7933780772      -601.5140725994       270.8513701175       323.5487084416        10.5974625261      2336.7456501450     -3104.3666076835      -438.8906561461       151.1540034336      -700.5987753217 
  180000       300.0402475349     11238.1583001538         0.7906643728       318.0320061564      -577.2253420853       282.1701240004       343.3515790365        13.3640594725      2316.6171081101     -3103.4694909378      -429.2587217670        54.4511784565     -1608.2100907517 
  181000       293.1806888538     11303.4378825019         0.7860981301       282.9709921158      -591.8188676294       272.5214038607       338.0604273635         4.5667840836      2308.7910496160     -3103.8714858656      -411.8870466877       298.5273054136        94.3670197651 
  182000       292.0816804706     11261.2651072201         0.7890420214       290.7470992625      -580.7635493137       251.5586088696       342.2891720954         6.4978491343      2327.0028395474     -3102.4782883278      -405.6337306328       112.6141268235     -1084.6290770252 
  183000       305.1458452346     10986.3872040127         0.8087837447       315.1029552690      -595.3884287243       270.8840268202       322.6730784517        14.7557018176      2334.5733833120     -3103.7777665978      -434.4968525281       370.7777812115       347.4786114296 
  184000       302.7636130428     11327.2360710375         0.7844465612       270.4971081790      -632.8861931738       283.0208064717       305.8695601289         5.6320332505      2301.8053088542     -3104.0458809843      -425.1680208948        44.5771702529     -1367.5862287449 
  185000       287.7111466800     11022.8769127209         0.8061063780       219.3145294033      -639.1553603950       273.4576502424       307.5012174019         9.3300416525      2303.9800918677     -3103.9241274773      -429.5002340822       297.3357492824       485.3353099955 
  186000       291.6089793140     10826.9167230552         0.8206963821       255.4686727747      -614.6315344110       271.9342062553       321.1106751783        11.5530404556      2314.9356850958     -3103.5286037204      -430.6365376756       342.3167348660       550.0212217153 
  187000       289.5944834671     11611.9548142754         0.7652123631       265.7745738643      -598.3147990257       267.6849897493       331.6030919446         4.8054093673      2306.9948675917     -3102.5952098371      -406.8079478415      -182.7451279174     -2648.5019567623 
  188000       294.8905316604     10981.0782168062         0.8091747648       287.5242661982      -592.3674068855       276.8479329619       321.5449141503         6.9594975927      2343.7276885324     -3104.4506489675      -436.9967911552       -89.0627894392     -2351.4974581512 
  189000       295.1929601014     11216.3421554660         0.7922022403       243.3660921840      -637.4279641176       256.2254497040       328.8293771397        16.6747738858      2311.1870211008     -3103.6193059654      -446.7252799823       544.5080751939      1840.9592163596 
  190000       289.2603177390     11412.3040720662         0.7785992493       298.6492824694      -564.4430097755       262.9087112510       341.5379834665        10.5748871610      2339.9495945682     -3104.8520222435      -414.5621639787        76.6924290542     -1333.5808037501 
  191000       285.3824207205     11392.7177474607         0.7799378147       250.1439027449      -601.3775558198       264.1455536500       325.8922274014        14.9064095489      2305.0355734290     -3103.0008299262      -408.3564899229       538.5859351802      1736.0223804260 
  192000       294.5903961897     10960.3283088876         0.8107066808       221.6594252194      -657.3367063899       248.3003057736       310.2755682185         9.9698052098      2328.1058303809     -3103.8701458033      -450.1180701694       -62.8782630222     -1780.0833826000 
  193000       314.2869151120     11225.3483590708         0.7915666489       373.8246456294      -563.9417791151       290.0447690287       346.2466609167        13.6725264566      2327.0981691722     -3103.1582623346      -437.8456423548       529.9493377300       953.6650745502 
  194000       297.5712056992     11079.3300709740         0.8019989771       260.0511079139      -627.8391358656       274.4575841053       307.5339420870        21.9787329155      2304.3037568021     -3102.8584258831      -433.2547258924       112.2779035875      -914.5475705860 
  195000       303.6251280768     11379.8344470794         0.7808207953       285.4398203945      -620.5140616427       270.7291455926       315.3723698301         9.7857297741      2303.0903972927     -3103.7518583136      -415.7398458186       195.2719274793      -543.3004785651 
  196000       297.4916703837     11234.5269242931         0.7909199420       354.0860254167      -533.5669016152       298.7377277076       345.6096147915         8.1889704302      2352.2917252734     -3103.1010591943      -435.2938806236       272.8572675932      -495.7687327563 
  197000       297.9363216739     11137.9874958311         0.7977753061       262.7200965888      -626.2595768987       273.0111091213       309.3236418273        11.7422812913      2312.2528976496     -3103.3042679439      -429.2852388443        25.3332534095     -1461.4165786009 
  198000       295.0621839740     10942.9376470913         0.8119950666       263.8310249847      -616.5728227032       255.0335679682       319.2919496274        11.2352185486      2354.5843330375     -3104.0022640191      -452.7156278658       561.1348266413      1862.9047437261 
  199000       306.1381159411     11276.5765456118         0.7879706529       365.0472079986      -548.4049042594       297.8313260551       333.4975175813        11.5652817034      2331.4168620294     -3101.6695157148      -421.0463759138       224.8335073149      -852.5842198900 
  200000       293.9914374995     11073.2570882588         0.8024388229       262.9345081877      -614.2744559561       266.2329729007       313.8870844310        16.3804091934      2344.0503463587     -3104.3631141666      -450.4621546733       675.5086236289      2554.7635117969 
  201000       292.4194079585     11175.6156889262         0.7950892041       270.9524934530      -601.5658633147       268.1269047740       324.4022178441         8.0442788418      2334.1847344610     -3102.1279268424      -434.1960723933       428.7198884643       967.9878510251 
  202000       290.6176939662     11300.4554421970         0.7863055988       251.9575105839      -615.1849084411       260.1153925419       322.0608172500        10.5897298602      2304.0196588570     -3104.2039860838      -407.7665208663       -84.8497482103     -2043.6645243323 
  203000       302.4965315221     11265.4721093828         0.7887473598       333.7262813532      -568.8601045994       282.8267950541       343.4244522730        11.8102063722      2319.1927750227     -3103.0290590818      -423.0852742396       166.9908288243     -1014.8518937516 
  204000       295.8161161087     11380.2798387556         0.7807902362       269.1946734930      -613.4587500075       259.5475612443       316.0390091961        10.7924575999      2348.1652014534     -3102.9964880592      -445.0064914421       244.1776735582      -150.7323245025 
  205000       284.8836068020     11058.6567488971         0.8034982535       224.6132960410      -625.4198061128       272.3587728286       314.6470346415        14.3997881617      2303.8699194087     -3104.3536407267      -426.3416804266       -47.1023803244     -1684.7537347506 
  206000       289.4281756083     11021.9866821318         0.8061714861       246.6168118251      -616.9763331959       282.6096421328       308.1332145606        10.9203697793      2299.0605898572     -3104.6338281124      -413.0663214135       517.9188942606      1687.7859060528 
  207000       315.5797005937     10972.5251988772         0.8098055117       350.0038945739      -591.6199316749       262.3990319700       324.8011913167        15.6129878170      2351.9551181787     -3102.5606322143      -443.8276287430       880.6486556322      3316.0525525650 
  208000       296.3090209182     11220.4799092616         0.7919101015       261.2784700235      -622.8456783426       261.7529168912       314.6792886872        10.5160141002      2312.3785096757     -3103.6382410091      -418.5341666877       581.4126765434      1956.3419128113 
  209000       306.0281195920     11499.5156725889         0.7726944018       370.5847263921      -542.5391797649       278.0018022225       332.0445898979        14.7323224818      2365.7772807683     -3102.3704787166      -430.7246964188       558.1068548157      1118.1423191658 
  210000       295.0943657824     11142.2301506208         0.7974715352       311.4071507670      -569.0927207068       290.4834917745       330.9452257482        14.0304225653      2320.2665883348     -3102.4693466504      -422.3491024792       295.3421919060       -98.8625033990 
Loop time of 61.1614 on 64 procs for 100000 steps with 1002 atoms

Performance: 141.266 ns/day, 0.170 hours/ns, 1635.018 timesteps/s
99.3% CPU use with 64 MPI tasks x no OpenMP threads

MPI task timing breakdown:
Section |  min time  |  avg time  |  max time  |%varavg| %total
---------------------------------------------------------------
Pair    | 12.543     | 19.343     | 26.661     |  96.1 | 31.63
Bond    | 0.49716    | 0.53086    | 0.57786    |   2.3 |  0.87
Kspace  | 16.24      | 23.591     | 30.408     |  87.0 | 38.57
Neigh   | 1.6282     | 1.6557     | 1.6691     |   0.9 |  2.71
Comm    | 12.951     | 13.076     | 13.168     |   1.7 | 21.38
Output  | 0.048456   | 0.048483   | 0.049002   |   0.0 |  0.08
Modify  | 2.0721     | 2.1422     | 2.1995     |   2.0 |  3.50
Other   |            | 0.7751     |            |       |  1.27

Nlocal:    15.6562 ave 21 max 8 min
Histogram: 2 1 1 14 9 4 11 8 6 8
Nghost:    4775.25 ave 4869 max 4673 min
Histogram: 1 3 3 7 14 14 14 5 2 1
Neighs:    12073 ave 20977 max 5943 min
Histogram: 6 7 10 9 7 15 5 1 2 2

Total # of neighbors = 772670
Ave neighs/atom = 771.128
Ave special neighs/atom = 5
Neighbor list builds = 3803
Dangerous builds = 0
unfix equil
undump equil

# WRITE RESTART FILES, CLEANUP, AND EXIT
write_restart   md-12.end.restart
PPPM initialization ...
WARNING: Using 12-bit tables for long-range coulomb (../kspace.cpp:321)
  G vector (1/distance) = 0.186569
  grid = 8 8 8
  stencil order = 5
  estimated absolute RMS force accuracy = 0.00727475
  estimated relative force accuracy = 2.19077e-05
  using double precision FFTs
  3d grid and FFT values/proc = 343 8
write_data      md-12.end.data pair ii
PPPM initialization ...
WARNING: Using 12-bit tables for long-range coulomb (../kspace.cpp:321)
  G vector (1/distance) = 0.186569
  grid = 8 8 8
  stencil order = 5
  estimated absolute RMS force accuracy = 0.00727475
  estimated relative force accuracy = 2.19077e-05
  using double precision FFTs
  3d grid and FFT values/proc = 343 8
unfix		averages
Total wall time: 0:03:19
