
#===========================================================
# GENERAL PROCEDURES
#===========================================================
units		real	# g/mol, angstroms, fs, kcal/mol, K, atm, charge*angstrom
dimension	3	# 3 dimensional simulation
newton		on	# use Newton's 3rd law
boundary	p p p	# periodic boundary conditions
atom_style	full    # molecular + charge

#===========================================================
# FORCE FIELD DEFINITION
#===========================================================
special_bonds  lj   0.0 0.0 0.0  coul 0.0 0.0 0.0     # NO     1-4 LJ/COUL interactions
pair_style     hybrid lj/cut/coul/long 14.0 14.0 # outer_LJ outer_Coul (cutoff values, see LAMMPS Doc)
kspace_style   pppm 0.0001          # long-range electrostatics sum method
bond_style     harmonic             # parameters needed: k_bond, r0
angle_style    harmonic             # parameters needed: k_theta, theta0
dihedral_style hybrid opls            # parameters needed: V1, V2, V3, V4
pair_modify    shift yes mix arithmetic       # using Lorenz-Berthelot mixing rules

#===========================================================
# SETUP SIMULATIONS
#===========================================================

# READ IN COEFFICIENTS/COORDINATES/TOPOLOGY
read_data ${data_name}
read_data md-17.data
  orthogonal box = (-11.2898 -11.2898 -11.2898) to (11.2898 11.2898 11.2898)
  4 by 4 by 4 MPI processor grid
  reading atoms ...
  1002 atoms
  reading velocities ...
  1002 velocities
  scanning bonds ...
  1 = max bonds/atom
  scanning angles ...
  6 = max angles/atom
  scanning dihedrals ...
  3 = max dihedrals/atom
  reading bonds ...
  835 bonds
  reading angles ...
  1169 angles
  reading dihedrals ...
  501 dihedrals
  4 = max # of 1-2 neighbors
  3 = max # of 1-3 neighbors
  4 = max # of 1-4 neighbors
  5 = max # of special neighbors
include ${settings_name}
include md-17.in.settings
     # Non-bonded interactions (pair-wise)
     pair_coeff           1          1          lj/cut/coul/long     0.008476             2.469949
     pair_coeff           1          2          lj/cut/coul/long     0.001921             2.249702
     pair_coeff           1          3          lj/cut/coul/long     0.027043             3.130997
     pair_coeff           1          4          lj/cut/coul/long     0.036999             2.728879
     pair_coeff           2          2          lj/cut/coul/long     0.001000             1.783952
     pair_coeff           2          3          lj/cut/coul/long     0.003903             3.074558
     pair_coeff           2          4          lj/cut/coul/long     0.006267             2.609221
     pair_coeff           3          3          lj/cut/coul/long     0.203530             3.440012
     pair_coeff           3          4          lj/cut/coul/long     0.179320             3.226401
     pair_coeff           4          4          lj/cut/coul/long     0.202563             2.903273

     # Stretching interactions
     bond_coeff           1           366.904251           1.096103
     bond_coeff           2           612.219900           0.957501
     bond_coeff           3           368.709924           1.411527

     # Bending interactions
     angle_coeff          1           40.926667            108.205025
     angle_coeff          2           61.328715            112.232133
     angle_coeff          3           49.873049            108.741688

     # Dihedral interactions
     dihedral_coeff       1          opls                  0.105414            -0.205941             0.372587            -0.070860

# SET RUN PARAMETERS
timestep	1.0		# fs
run_style	verlet 		# Velocity-Verlet integrator
neigh_modify every 1 delay 0 check no one 10000 # More relaxed rebuild criteria can be used

#===========================================================
# RUN CONSTRAINED RELAXATION
#===========================================================

# SET OUTPUTS
thermo_style    custom step temp vol density etotal pe ebond eangle edihed ecoul elong evdwl enthalpy press
thermo_modify   format float %20.10f
thermo ${thermo_freq}
thermo 1000

# DECLARE RELEVANT OUTPUT VARIABLES
variable        my_step equal   step
variable        my_temp equal   temp
variable        my_rho  equal   density
variable        my_pe   equal   pe
variable        my_ebon equal   ebond
variable        my_eang equal   eangle
variable        my_edih equal   edihed
variable        my_evdw equal   evdwl
variable        my_eel  equal   (ecoul+elong)
variable        my_ent  equal   enthalpy
variable        my_P    equal   press
variable        my_vol  equal   vol

fix  averages all ave/time ${dump4avg} $(v_avg_freq/v_dump4avg) ${avg_freq} v_my_temp v_my_rho v_my_vol v_my_pe v_my_edih v_my_evdw v_my_eel v_my_ent v_my_P file thermo.avg
fix  averages all ave/time 100 $(v_avg_freq/v_dump4avg) ${avg_freq} v_my_temp v_my_rho v_my_vol v_my_pe v_my_edih v_my_evdw v_my_eel v_my_ent v_my_P file thermo.avg
fix  averages all ave/time 100 10 ${avg_freq} v_my_temp v_my_rho v_my_vol v_my_pe v_my_edih v_my_evdw v_my_eel v_my_ent v_my_P file thermo.avg
fix  averages all ave/time 100 10 1000 v_my_temp v_my_rho v_my_vol v_my_pe v_my_edih v_my_evdw v_my_eel v_my_ent v_my_P file thermo.avg

# INITIALIZE VELOCITIES AND CREATE THE CONSTRAINED RELAXATION FIX
velocity        all create ${ANNEAL_TEMP} ${vseed} mom yes rot yes     # DRAW VELOCITIES
velocity        all create 100.0 ${vseed} mom yes rot yes     
velocity        all create 100.0 77028 mom yes rot yes     

fix relax all nve/limit 0.01
run             10000
PPPM initialization ...
WARNING: Using 12-bit tables for long-range coulomb (../kspace.cpp:321)
  G vector (1/distance) = 0.185902
  grid = 8 8 8
  stencil order = 5
  estimated absolute RMS force accuracy = 0.00751438
  estimated relative force accuracy = 2.26293e-05
  using double precision FFTs
  3d grid and FFT values/proc = 343 8
Neighbor list info ...
  update every 1 steps, delay 0 steps, check no
  max neighbors/atom: 10000, page size: 100000
  master list distance cutoff = 16
  ghost atom cutoff = 16
  binsize = 8, bins = 3 3 3
  1 neighbor lists, perpetual/occasional/extra = 1 0 0
  (1) pair lj/cut/coul/long, perpetual
      attributes: half, newton on
      pair build: half/bin/newton
      stencil: half/bin/3d/newton
      bin: standard
Per MPI rank memory allocation (min/avg/max) = 8.551 | 8.655 | 9.267 Mbytes
Step Temp Volume Density TotEng PotEng E_bond E_angle E_dihed E_coul E_long E_vdwl Enthalpy Press 
       0       100.0000000000     11511.9709875890         0.7718583893      -287.8676279510      -586.2467139560       265.5901032895       315.4482614650        16.0938091884      2286.4840730248     -3093.2137062030      -376.6492547206      -723.7016893338     -2595.9456312256 
    1000        25.7921376788     11511.9709875890         0.7718583893     -1382.1901402174     -1459.1484848845         9.5912354092        17.5683621925       -36.2935277043      2073.7236410153     -3094.0058644904      -429.7323313067     -1833.3351192216     -2687.1416005895 
    2000        20.4384713529     11511.9709875890         0.7718583893     -1429.1275662870     -1490.1116903032         8.8762222093        17.3907921679       -36.4219972756      2038.5563689255     -3093.9320763222      -424.5810000079     -1718.9015931633     -1725.9725335040 
    3000        16.6230905563     11511.9709875890         0.7718583893     -1451.0483160844     -1500.6481417521         8.6793195709        17.7831888700       -35.6975235784      2027.8626895982     -3094.1057685249      -425.1700476878     -1759.5041097216     -1837.2461926866 
    4000        14.6775655976     11511.9709875890         0.7718583893     -1468.5621988056     -1512.3569848834         8.6646097465        17.1267297372       -36.5431919874      2031.5360504205     -3094.3236916261      -438.8174911741     -1884.2028052661     -2475.6679482045 
    5000        14.7177564932     11511.9709875890         0.7718583893     -1480.6934603086     -1524.6081676134         8.5710641536        16.9002228608       -36.9736022732      2025.0413287728     -3094.3727518894      -443.7744292381     -1829.4343881095     -2077.1953552280 
    6000        13.5249208220     11511.9709875890         0.7718583893     -1490.0536729623     -1530.4092080938         8.4492645414        17.0153892947       -37.3521248180      2027.9471796399     -3094.3904142371      -452.0785025147     -1870.9103306006     -2268.4853344932 
    7000        12.7956298650     11511.9709875890         0.7718583893     -1497.5696709220     -1535.7491543618         8.3616878658        17.5693265691       -37.7705496454      2027.0208001145     -3094.6086192500      -456.3218000157     -1847.5969094359     -2084.8569699839 
    8000        12.7239454885     11511.9709875890         0.7718583893     -1504.2759682838     -1542.2415605363         8.3034887507        16.8101379880       -37.8506119339      2024.4401530000     -3094.5212757731      -459.4234525681     -1830.4837143856     -1942.9816262597 
    9000        11.8147993186     11511.9709875890         0.7718583893     -1509.6762819192     -1544.9291721395         8.2088667925        16.2553138630       -36.9273121146      2021.3908598617     -3094.7349225108      -459.1219780312     -1782.7528261855     -1626.5178077850 
   10000        11.3663092899     11511.9709875890         0.7718583893     -1516.0548888953     -1549.9695786669         8.6235207233        16.7948238993       -38.5581802067      2017.8386331112     -3094.6491521940      -460.0192240001     -1826.1935712988     -1847.2699336651 
Loop time of 12.6684 on 64 procs for 10000 steps with 1002 atoms

Performance: 68.201 ns/day, 0.352 hours/ns, 789.367 timesteps/s
98.9% CPU use with 64 MPI tasks x no OpenMP threads

MPI task timing breakdown:
Section |  min time  |  avg time  |  max time  |%varavg| %total
---------------------------------------------------------------
Pair    | 0.24737    | 1.9213     | 3.4083     |  53.7 | 15.17
Bond    | 0.0056515  | 0.049385   | 0.074671   |   7.0 |  0.39
Kspace  | 1.2052     | 2.702      | 4.3924     |  45.6 | 21.33
Neigh   | 4.5474     | 4.6374     | 4.7656     |   2.3 | 36.61
Comm    | 3.0913     | 3.2199     | 3.322      |   2.9 | 25.42
Output  | 0.0017278  | 0.002147   | 0.0021641  |   0.1 |  0.02
Modify  | 0.029939   | 0.031431   | 0.032233   |   0.3 |  0.25
Other   |            | 0.1047     |            |       |  0.83

Nlocal:    15.6562 ave 25 max 0 min
Histogram: 5 2 1 3 5 7 11 4 21 5
Nghost:    4619.62 ave 5005 max 4156 min
Histogram: 3 2 6 7 11 10 4 9 7 5
Neighs:    11660.5 ave 22584 max 0 min
Histogram: 6 3 2 8 11 10 6 9 6 3

Total # of neighbors = 746273
Ave neighs/atom = 744.783
Ave special neighs/atom = 5
Neighbor list builds = 10000
Dangerous builds not checked
unfix relax

#===========================================================
# RUN RAMPED ANNEAL
#===========================================================

# REINITIALIZE THE VELOCITIES AND CREATE THE ANNEALING FIX
velocity        all create ${ANNEAL_TEMP} ${vseed} mom yes rot yes     # DRAW VELOCITIES
velocity        all create 100.0 ${vseed} mom yes rot yes     
velocity        all create 100.0 77028 mom yes rot yes     

fix mom all momentum 1000 linear 1 1 1 angular # Zero out system linear and angular momentum every ps
fix anneal all npt temp ${ANNEAL_TEMP} ${FINAL_TEMP} 100.0 iso ${pressure} ${pressure} 1000.0 # NPT, nose-hoover 100 fs T relaxation
fix anneal all npt temp 100.0 ${FINAL_TEMP} 100.0 iso ${pressure} ${pressure} 1000.0 
fix anneal all npt temp 100.0 298.0 100.0 iso ${pressure} ${pressure} 1000.0 
fix anneal all npt temp 100.0 298.0 100.0 iso 1.0 ${pressure} 1000.0 
fix anneal all npt temp 100.0 298.0 100.0 iso 1.0 1.0 1000.0 

# CREATE COORDINATE DUMPS FOR ANNEAL
dump anneal all custom ${coords_freq} anneal.lammpstrj id type x y z mol
dump anneal all custom 1000 anneal.lammpstrj id type x y z mol
dump_modify anneal sort id format float %20.10g

# RUN RAMPED ANNEAL
run ${nSteps_ramp}
run 50000
PPPM initialization ...
WARNING: Using 12-bit tables for long-range coulomb (../kspace.cpp:321)
  G vector (1/distance) = 0.185902
  grid = 8 8 8
  stencil order = 5
  estimated absolute RMS force accuracy = 0.00751438
  estimated relative force accuracy = 2.26293e-05
  using double precision FFTs
  3d grid and FFT values/proc = 343 8
Per MPI rank memory allocation (min/avg/max) = 9.824 | 10.36 | 10.55 Mbytes
Step Temp Volume Density TotEng PotEng E_bond E_angle E_dihed E_coul E_long E_vdwl Enthalpy Press 
   10000       100.0000000000     11511.9709875890         0.7718583893     -1251.5904926619     -1549.9695786669         8.6235207233        16.7948238993       -38.5581802067      2017.8386331112     -3094.6491521940      -460.0192240001     -1385.4195775766      -797.1222515578 
   11000        90.1756146287     10299.4114647592         0.8627300127      -987.0656568708     -1256.1308315993       112.0965526778       110.1839974653       -20.4614005717      2104.9160591820     -3094.1396943668      -468.7263459859     -1240.5537145278     -1687.5987909063 
   12000       110.7767516586      9939.7284622461         0.8939491071      -958.3508208214     -1288.8854799262        91.6770510484       114.3247096097       -11.6998971049      2098.2394760964     -3094.7213470022      -486.7054725737      -933.5436635126       171.1301736042 
   13000       106.1076180588      9777.1047693458         0.9088182640      -974.0035667411     -1290.6065076866        86.0977812273       109.0829871307       -10.3909543737      2097.1267895506     -3094.4977352492      -478.0253759723      -885.8040748742       618.5572829372 
   14000       118.6926717306      9601.4011830991         0.9254494437      -941.7216508444     -1295.8757599091        92.6997204583       114.9293433205       -23.4637186478      2119.8594975397     -3093.5592369481      -506.3413656317      -940.2477064850        10.5261749399 
   15000       122.7004400066      9812.1669150311         0.9055707532      -902.7985822609     -1268.9110336766        99.7754040835       123.4821348447       -13.7784698111      2092.7351070541     -3093.6302579114      -477.4949519363      -798.3856765743       729.6479473360 
   16000       127.5490543687      9850.3683747118         0.9020587907      -865.7098507458     -1246.2895533792        98.4424409607       129.1622036679       -10.0476826921      2115.6758255117     -3093.7694743522      -485.7528664752      -939.8165872470      -515.8569983794 
   17000       130.2568514262      9693.0124180651         0.9167027752      -857.5121043872     -1246.1713071316        94.1451829363       131.9297760501        -8.5429805488      2117.6714334595     -3094.4589606752      -486.9157583535      -606.6614304869      1774.5188357514 
   18000       135.5239893812      9552.3123983518         0.9302052752      -827.5454499501     -1231.9206907831       112.2961791026       132.6147504824        -6.3581501516      2100.6986503922     -3094.6801925074      -476.4919281014      -952.9864746396      -900.4408440846 
   19000       133.4272740483      9639.9656926463         0.9217471998      -849.8802838478     -1247.9993646346       103.4638438585       140.5760959953        -7.6141274722      2108.0620957430     -3095.1380375529      -497.3492352063      -816.5530339304       237.0544435538 
   20000       137.7060347515      9445.9615430150         0.9406783357      -826.0880944348     -1236.9741023001       107.6533913740       137.4715704823        -6.7166607318      2115.5459995299     -3095.1699709027      -495.7584320518      -855.4462171179      -213.1111724926 
   21000       146.3671271609      9685.0952513395         0.9174521420      -751.0820059742     -1187.8109022087       116.8387789590       161.9891559797        -9.4067155286      2117.9644017499     -3094.8906738604      -480.3058495084      -622.8664304363       907.7390118316 
   22000       151.4318179988      9645.8695829117         0.9211830315      -740.6428618227     -1192.4837362884       118.7669412151       153.1729288173       -10.0381352214      2120.0090530159     -3094.6181448294      -479.7763792860      -629.6961813904       788.6731166506 
   23000       144.3919500417      9707.7661461750         0.9153095830      -730.1264625945     -1160.9618433938       124.1118549057       160.2072134201        -3.6594938320      2137.7711527994     -3094.5877612000      -484.8048094870     -1130.7115007671     -2829.4337468189 
   24000       154.6826345169      9682.3586256017         0.9177114510      -695.9973308681     -1157.5379619481       127.3889189704       169.7142259011        -3.1733308546      2124.0792869550     -3094.4846106420      -481.0624522779      -517.9511410040      1260.8854420545 
   25000       163.2282667261      9818.8449561270         0.9049548519      -637.5107282758     -1124.5497386349       125.3067208370       171.3089573906        -7.3314188759      2158.0640885328     -3094.4388763300      -477.4592101893      -744.5290151012      -747.3459797376 
   26000       163.7428763368      9632.6729916642         0.9224450359      -641.8596421052     -1130.4341399172       125.5688247039       175.8831420686        -1.5130023481      2145.9590070089     -3094.4840947236      -481.8480166269      -712.6078286643      -503.6079830259 
   27000       166.6336164774      9853.2197045025         0.9017977524      -599.5832921223     -1096.7831539445       142.3354588967       178.9683261077        -4.6887867214      2145.2376665514     -3094.4177509998      -464.2180677791      -281.0612217596      2216.5905320580 
   28000       170.6050005878      9737.8830110079         0.9124787568      -586.1424484515     -1095.1920898842       145.0381754758       184.7175150978        -4.7528353887      2142.3308030715     -3093.7251147798      -468.8006333609      -417.7245080863      1185.8995651674 
   29000       177.2355612185      9705.0618751099         0.9155646299      -566.5210103133     -1095.3548579528       149.7453624772       182.8280829636        -2.1558491450      2162.9952936284     -3094.5219986893      -494.2457491877      -445.7741432121       853.1034010795 
   30000       180.2475642806      9864.4455380717         0.9007714979      -508.7467929821     -1046.5678278290       162.2581580059       197.1290861761         0.6212972728      2147.8569395975     -3093.5960840001      -460.8372248812      -358.9850817592      1041.0035847032 
   31000       182.9596220090      9979.5206553117         0.8903845876      -496.7962143223     -1042.7094622309       151.5192074633       189.0760179666        -0.0325405727      2185.1672039450     -3094.5105809717      -473.9287700615      -683.9770427174     -1286.1031270687 
   32000       186.0350140884      9951.4437395417         0.8928967109      -509.1646857843     -1064.2542604705       156.5639179982       183.4765944954        -5.1904714635      2151.5300625326     -3093.8329571134      -456.8014069198      -806.9196051809     -2051.6201885714 
   33000       196.7652030617      9684.3906265169         0.9175188947      -435.0438522854     -1022.1500667567       166.1110635909       211.2941869908         3.4614167104      2158.5694300846     -3093.1925360320      -468.3936281014      -588.4769120733     -1086.3524742020 
   34000       192.6800633911     10191.5302262867         0.8718623392      -405.8413557136      -980.7583677738       171.4747210576       215.4703954863         3.7451804636      2181.1638963696     -3094.3255990339      -458.2869621169      -264.7805931292       949.0540374552 
   35000       202.9122844257     10042.1042695692         0.8848356027      -368.2909640115      -973.7387836727       165.9418400350       229.7138506101        -4.4799314045      2181.5388327670     -3095.2906339813      -451.1627416990      -411.1442611730      -292.6062690664 
   36000       207.4611933649     10095.8936379150         0.8801213347      -379.0784731675      -998.0992857448       166.4644126820       218.2789932772        -9.4224415654      2180.5851521343     -3094.2817705976      -459.7236316752       -69.3456832404      2103.6163058484 
   37000       204.8013890295     10134.2279440259         0.8767921378      -312.9126111078      -923.9971238197       184.6349196714       241.1666863392         2.7331396919      2184.7822591809     -3093.0271568801      -444.2869718231      -491.7905592637     -1210.2922345187 
   38000       204.6900984276     10201.1232805201         0.8710424469      -329.8062651321      -940.5587099630       184.5667202462       230.0873345582        -2.2579582621      2192.3414635448     -3094.2136255684      -451.0826444817      -382.7303645253      -355.7374527203 
   39000       214.2842127642     10105.1901020118         0.8793116501      -293.3610075842      -932.7402830832       181.0801090720       234.6724800212         6.5790580146      2205.9775483265     -3093.9809223508      -467.0685561666      -410.2211727216      -792.9505748253 
   40000       210.4044582090     10257.1153864829         0.8662875525      -298.3676779550      -926.1705772727       183.9893552825       240.7153865432         5.2140802065      2183.2822732865     -3094.2771972778      -445.0944753136      -172.2567204912       843.0468159522 
   41000       219.1197380439     10418.6541362272         0.8528559704      -253.9424322329      -907.7499038648       187.1809762641       233.6239588171         4.2024733126      2209.9630550384     -3093.3064504219      -449.4139168752        40.5879506003      1938.3963855745 
   42000       219.6370593236     10486.1124839396         0.8473694515      -176.5872280437      -831.9382781818       204.4221905687       258.0018923770         5.6043474250      2223.2012260215     -3092.2907485776      -430.8771859963      -400.7567832733     -1465.8388527578 
   43000       230.3585120301     10381.1355863328         0.8559382844      -183.6643297424      -871.0059524726       205.1567977480       234.2304234964        -3.1993844115      2230.5922364235     -3092.7958250478      -444.9902006812      -550.1374097964     -2420.5905057778 
   44000       231.7017336099     10415.2486524639         0.8531348295      -168.3399409084      -859.6894559114       197.8469536429       245.1234028845         7.2700935998      2221.4159577196     -3094.1660066605      -437.1798570978      -296.2367086054      -842.0037713195 
   45000       242.5297655724     10543.6393621480         0.8427461409       -83.3414170424      -806.9995148472       224.5519996425       250.2579026189        18.6750363240      2238.5411676026     -3093.8596519184      -445.1659691167        77.1519638582      1043.7360733195 
   46000       233.4810978536     10755.9207997892         0.8261135006      -130.8774104881      -827.5361762581       219.1689737127       242.6525127384        -2.2336124873      2257.6072116955     -3091.5792668087      -453.1519951086      -238.0959185450      -683.5122062512 
   47000       246.7085383729     10505.4036464478         0.8458134197       -47.3604789172      -783.4871608105       227.0646984348       262.7150323900        12.1634325161      2245.9004385595     -3093.4482482909      -437.8825144200        -0.4857619725       305.9496952844 
   48000       255.6555292711     10552.2097135324         0.8420616747       -13.3183544941      -776.1409860544       225.1822540632       260.7312699824         5.7621433520      2270.5814168354     -3094.0811051719      -444.3169651154       -65.4880943919      -338.9997425059 
   49000       249.1922899550     10701.4178177938         0.8303209476        -7.6684317695      -751.2061089323       240.7253047665       271.4456024924         2.3956679654      2250.9719658171     -3093.1884019359      -423.5562480377      -425.0255961384     -2674.1801634997 
   50000       260.5238961766     10856.1734451831         0.8184846556        28.1192997410      -749.2295204954       227.2182309589       267.5749986696        10.2786117624      2253.2076761936     -3093.0216878461      -414.4873502338       -86.1810572707      -721.9297254053 
   51000       255.5622199729     11089.1376763382         0.8012896623        49.7841850158      -712.7600311136       221.9048666469       286.6958143826         8.7777204156      2269.6411008767     -3092.6164550178      -407.1630784175       194.3794391802       894.0882225438 
   52000       272.3888874105     10967.7621816399         0.8101571894       126.0466401785      -686.7048324562       231.1594589384       295.2223825243        12.4705968800      2291.9100443315     -3092.5505266338      -424.9167884966       119.8993257415       -38.4318697352 
   53000       279.7368564716     11050.0934973336         0.8041209231       184.3321204867      -650.3441550722       247.2280521109       294.2938681005         8.9090646368      2300.8846971328     -3092.1653799949      -409.4944570583       422.2209516348      1476.1558444697 
   54000       284.0372493459     10522.4002348393         0.8444471970       161.8397051782      -685.6680433339       246.4241904017       292.3360707469        15.2764765865      2299.0940897859     -3092.3445789093      -446.4542919456       357.4506231534      1274.6835610609 
   55000       280.3551199905     10888.7314706790         0.8160373325       172.9206424138      -663.6004021820       239.3108030995       305.2514271792         6.5039877856      2297.8892864145     -3093.0193352244      -419.5365714364      -205.9167425298     -2385.6111337006 
   56000       276.2182953645     11092.6132337180         0.8010386008       171.2076998423      -652.9699252449       229.3995112811       319.4025804126        13.0999623794      2286.2668671440     -3092.6938798823      -408.4449665795       397.7709188751      1400.4888207191 
   57000       283.7456479456     11259.5932679122         0.7891591794       257.0516718508      -589.5859990683       252.6115966636       319.5899612668        11.2388798590      2350.2474088002     -3091.7690576625      -431.5047879955       205.5573725038      -313.5888130012 
   58000       288.2548937264     10876.4797904794         0.8169565480       201.9192919390      -658.1730253267       243.5282279357       298.3111186458        10.8693629817      2295.3582251354     -3093.8732578089      -412.3667022165       123.5783256424      -493.8836822209 
   59000       297.4220818916     11544.1966660765         0.7697037430       325.1897764215      -562.2555131036       276.7737117547       311.7227499457         8.2494535576      2350.1846990302     -3093.0021108867      -416.1840165050       122.4109710669     -1204.4338537317 
   60000       292.0099038104     11616.5793634760         0.7649077328       355.7336497044      -515.5628323292       292.9630041124       325.6149732209        11.9768384899      2327.7936644585     -3091.9421334594      -381.9691791515       551.8763234818      1157.7583928933 
Loop time of 67.9587 on 64 procs for 50000 steps with 1002 atoms

Performance: 63.568 ns/day, 0.378 hours/ns, 735.741 timesteps/s
99.3% CPU use with 64 MPI tasks x no OpenMP threads

MPI task timing breakdown:
Section |  min time  |  avg time  |  max time  |%varavg| %total
---------------------------------------------------------------
Pair    | 7.5621     | 11.767     | 16.615     |  71.1 | 17.31
Bond    | 0.24353    | 0.28579    | 0.33732    |   4.1 |  0.42
Kspace  | 8.0409     | 12.953     | 17.247     |  68.2 | 19.06
Neigh   | 23.274     | 23.682     | 23.894     |   3.3 | 34.85
Comm    | 17.137     | 17.346     | 17.788     |   4.2 | 25.52
Output  | 0.031495   | 0.031538   | 0.032037   |   0.0 |  0.05
Modify  | 1.1503     | 1.1917     | 1.2573     |   2.2 |  1.75
Other   |            | 0.7029     |            |       |  1.03

Nlocal:    15.6562 ave 26 max 8 min
Histogram: 3 5 6 14 13 10 11 1 0 1
Nghost:    4608.05 ave 4734 max 4470 min
Histogram: 3 6 6 6 7 5 16 8 4 3
Neighs:    11578 ave 20964 max 5565 min
Histogram: 7 4 9 15 11 10 2 4 1 1

Total # of neighbors = 740993
Ave neighs/atom = 739.514
Ave special neighs/atom = 5
Neighbor list builds = 50000
Dangerous builds not checked
unfix anneal

# RUN EQUILIBRATION PHASE AT FINAL TEMP
fix anneal all npt temp ${FINAL_TEMP} ${FINAL_TEMP} 100.0 iso ${pressure} ${pressure} 1000.0 # NPT, nose-hoover 100 fs T relaxation
fix anneal all npt temp 298.0 ${FINAL_TEMP} 100.0 iso ${pressure} ${pressure} 1000.0 
fix anneal all npt temp 298.0 298.0 100.0 iso ${pressure} ${pressure} 1000.0 
fix anneal all npt temp 298.0 298.0 100.0 iso 1.0 ${pressure} 1000.0 
fix anneal all npt temp 298.0 298.0 100.0 iso 1.0 1.0 1000.0 
run ${nSteps_ramp}
run 50000
PPPM initialization ...
WARNING: Using 12-bit tables for long-range coulomb (../kspace.cpp:321)
  G vector (1/distance) = 0.185716
  grid = 8 8 8
  stencil order = 5
  estimated absolute RMS force accuracy = 0.00758212
  estimated relative force accuracy = 2.28333e-05
  using double precision FFTs
  3d grid and FFT values/proc = 343 8
Per MPI rank memory allocation (min/avg/max) = 10.43 | 10.54 | 10.57 Mbytes
Step Temp Volume Density TotEng PotEng E_bond E_angle E_dihed E_coul E_long E_vdwl Enthalpy Press 
   60000       292.0099038104     11616.5793634760         0.7649077328       355.7329245663      -515.5635574673       292.9630041124       325.6149732209        11.9768384899      2324.7217540912     -3088.8709482302      -381.9691791515       551.8712534150      1157.7327463704 
   61000       306.1464542548     11116.9265493897         0.7992866863       331.6155288490      -581.8614631933       270.2309083090       305.1523055683        13.6206289353      2349.8648877954     -3089.5573781093      -431.1728156919       470.1126775257       854.2405964988 
   62000       298.6686963109     11351.8946850179         0.7827425844       328.4794256120      -562.6855006234       270.4557914268       323.6568062598         9.0331328117      2346.3079019222     -3090.2399125808      -421.8992204631       270.8661592194      -347.9992079844 
   63000       290.6476931380     11443.0793471489         0.7765052670       272.7260674544      -594.5058628252       252.6897617776       296.7330226081        12.0298260776      2335.8638256101     -3089.1840794742      -402.6382194245        51.2264351731     -1327.2545132178 
   64000       303.6866210255     11535.1162202519         0.7703096539       342.6143809077      -563.5229832275       270.0440619733       325.7645587103        14.9233887024      2317.5781094958     -3087.5960465805      -404.2370555288       241.4640945926      -601.2696081244 
   65000       317.7142666032     11510.3611631186         0.7719663404       403.9879509811      -544.0049738169       255.0740049594       350.6467657507        13.0719444387      2313.6492767721     -3090.4281100467      -386.0188556911       550.8405529838       874.8161778116 
   66000       302.7610588551     11204.1979204368         0.7930609087       299.7954236252      -603.5802565657       265.4538747438       307.3484221795         9.0872968820      2297.5108425172     -3090.2130207158      -392.7676721723       -48.8746662971     -2133.8212332248 
   67000       296.3924249784     11322.0561758897         0.7848054493       318.1193873689      -566.2536212698       258.4850614061       337.0964732118        21.7109639873      2305.1749589956     -3089.2715612572      -399.4495176133       336.0769172590       108.7540410284 
   68000       305.7595347740     11221.7673511305         0.7918192479       352.9192577549      -559.4032474771       266.9922019578       330.1608322254        18.8401658065      2323.9580265255     -3089.2827652344      -410.0717087577       453.3707701807       613.7893235418 
   69000       301.0812093858     11667.8945855792         0.7615436803       358.0148996436      -540.3484610546       284.7117382109       330.9708531629         8.5490598993      2318.3531975306     -3088.5741941740      -394.3591156844       518.0387161544       940.4078327857 
   70000       289.9376874050     11457.7586642920         0.7755104331       260.4360786530      -604.6773430100       247.9377242038       326.9698928549         8.3037024000      2302.3558016684     -3090.1249173741      -400.1195467631       -78.8902419897     -2030.6823224302 
   71000       306.6339522616     11338.2972478280         0.7836812874       345.3029483885      -569.6286357508       255.9923350830       330.0200360788        14.1073338656      2310.9614607618     -3090.2716825002      -390.4381190397       783.1311001607      2647.7681571767 
   72000       310.4668641631     11256.8796107447         0.7893494193       365.8036038441      -560.5645877943       250.2893649001       326.9172937221        19.8178399813      2323.3630832084     -3088.6661338702      -392.2860357361       635.3193065722      1641.6862570017 
   73000       291.6871857514     11834.7602491076         0.7508062011       284.4616479824      -585.8719108565       260.1794239999       312.8960372254         8.6813275369      2308.4562533237     -3090.4044816788      -385.6804712636      -409.0217861373     -4017.9149307167 
   74000       302.2872244823     11435.2652765638         0.7770358771       404.4087579456      -497.5530995745       288.6198372153       330.6278251491        13.8125360256      2344.2276595493     -3089.6682180877      -385.1727394261       427.8935400710       140.8200201752 
   75000       296.7093755856     11490.5605161313         0.7732966004       327.0784300553      -558.2402929083       276.1577317206       310.9730580958        17.1607821748      2304.3351689393     -3090.3821949490      -376.4848388898       385.0824451290       346.1313633618 
   76000       309.2009235314     11602.8379539351         0.7658136241       394.5999329315      -527.9909566204       281.8558774872       332.4885379689         5.9273782884      2346.4285162418     -3090.0175526335      -404.6737139732       110.2668786374     -1680.3015729823 
   77000       292.2798872473     11133.5685530138         0.7980919452       331.7644818793      -540.3375742657       277.8929785161       329.4713462815        11.3693212344      2349.4947364398     -3088.9194670618      -419.6464896756       646.8283509611      1940.3868601371 
   78000       296.5883069200     11769.1811874993         0.7549897688       367.2717661395      -517.6857132461       282.1577724432       332.6541339471        11.1962233686      2349.0004042849     -3090.1208565453      -402.5733907447       -99.7032166548     -2720.6424903091 
   79000       303.4523287629     11042.4260324577         0.8046792759       330.7815331656      -574.6567518581       251.6020019920       310.5116258400        13.1054055930      2331.7737536635     -3088.9938602339      -392.6556787127       223.1335328618      -668.4448450964 
   80000       292.4161191283     11490.1803707771         0.7733221844       323.8321859671      -548.6763576192       286.4342878779       307.0758364704        17.9683904978      2316.2931044390     -3089.2087059083      -387.2392709960       164.8651562462      -948.6463148085 
   81000       297.4288673112     11645.1184766803         0.7630331457       339.5446087581      -547.9209270402       268.6949722000       336.6855416574         8.6717816727      2335.4087902226     -3089.6966406372      -407.6853721558       362.6070952975       135.7957972803 
   82000       292.6574318473     10998.6906960333         0.8078790130       299.1902374644      -574.0383328073       269.5158746433       326.1916450716        18.6922606673      2295.0356488794     -3090.1881800127      -393.2855820562       377.5923417412       488.7770891552 
   83000       302.8934411440     11366.0697746966         0.7817663942       336.1071079902      -567.6635732643       260.3582308855       330.8843532515        11.2648486412      2337.0732347581     -3090.8802763543      -416.3639644463       261.5934347982      -449.5207726051 
   84000       283.1240247882     11220.5848715786         0.7919026936       271.5561147953      -573.2267626282       281.6470338773       303.6545804427        15.2719664793      2329.4942416436     -3089.6500505944      -413.6445344767       341.9197794511       429.9887228926 
   85000       292.5079148057     11408.6071389154         0.7788515526       298.4730417628      -574.3094009269       246.9820858978       324.0327976399        14.4380068854      2321.1713934789     -3087.3211933524      -393.6124914763       256.6827895941      -251.1692548236 
   86000       305.1355995004     11329.2431112012         0.7843075920       373.2466324226      -537.2141804427       277.3600970170       329.2414451261        13.1182930169      2341.1023215081     -3090.5664516953      -407.4698854154       147.9681194107     -1363.4618322829 
   87000       300.9186248766     11160.6688028723         0.7961540245       294.9654719585      -602.9127705670       246.2983112890       310.6744148426         8.9979364403      2322.9294973272     -3089.8656460247      -401.9472844414       628.1896801096      2047.2479020850 
   88000       311.8440847159     11499.8042657469         0.7726750107       339.3875446935      -591.0899850426       253.6100462380       317.8122087611        10.6861682834      2310.2310393953     -3090.3561923507      -393.0732553697       735.0477919687      2359.1528522774 
   89000       305.2763845229     11642.0257295182         0.7632358483       346.1253795126      -564.7555064159       264.5683149246       333.1301881438        14.2697902358      2297.7571671198     -3090.3942819310      -384.0866849089       725.3887773170      2233.7598850192 
   90000       299.6102878141     11501.4530821119         0.7725642421       329.7615571280      -564.2128812287       255.3090554022       335.9390920343        12.9846258696      2308.5255134112     -3090.0492360151      -386.9219319309       137.1582332699     -1148.2466212219 
   91000       294.7413216694     11035.9075117599         0.8051545715       308.1807277226      -571.2657339537       279.0148002014       306.8558233575        13.0892359325      2323.5039392591     -3090.0527380594      -403.6767946449        95.3440089127     -1322.3993085341 
   92000       291.3115899818     11273.8983384575         0.7881578418       248.9742003069      -620.2386593075       249.8676711145       300.9380963223         8.5976121127      2307.4652221103     -3089.8633252824      -397.2439356849       301.7699765994       321.1065587420 
   93000       298.8578051525     12158.2805379367         0.7308279617       323.1359162520      -568.5932712167       255.2574291256       326.3004488158        15.0324496598      2291.6630810679     -3089.7254457774      -367.1212341084       648.4357611698      1834.5764186117 
   94000       296.7642825158     11447.9031575787         0.7761780705       280.7892112552      -604.6933425048       255.3251961475       301.6984676033        17.2144240335      2311.6343750164     -3088.5103053611      -402.0554999443       251.0705073842      -178.0032895316 
   95000       296.9232862701     11288.1784199057         0.7871607848       334.8952437364      -551.0617439723       274.0134609416       319.4528187924        12.3948286757      2339.8151313977     -3090.4800088938      -406.2579748859        56.7628528557     -1689.4751742425 
   96000       290.5716996396     11472.5463385482         0.7745108297       281.8554953797      -585.1496861940       257.1994453356       311.1330109225         9.6588758506      2350.6874083793     -3088.5926563312      -425.2357703507       296.0501053106        84.8374786015 
   97000       307.6748124823     11431.5903674430         0.7772856705       307.2353600778      -610.8019332745       254.1866345978       301.4790050026        14.5260329435      2315.4977462692     -3090.3429019140      -406.1484501735        81.0605115228     -1356.6310880465 
   98000       296.3298220948     11198.0181775258         0.7934985676       318.7467174500      -565.4394972768       290.8046537794       323.2583887659        12.3889024173      2289.5942318542     -3090.4944066408      -390.9912674529       436.0077523516       718.0202047357 
   99000       300.9716280033     11606.3681510907         0.7655806940       347.5860141988      -550.4503785717       272.3334125071       330.9842089933        13.3658035564      2295.7484920899     -3090.0626810993      -372.8196146191       126.2566284852     -1307.5757182389 
  100000       300.8255322774     10900.6534021181         0.8151448409       301.5538172766      -596.0466564023       264.0595627313       331.0260641536        10.9385741294      2317.0153557803     -3090.9419094648      -428.1443037322       -12.1963207780     -1973.5834980549 
  101000       310.1220293828     11442.2641277507         0.7765605901       324.6070852566      -600.7321915160       255.4288162862       324.4608159784         8.0131151186      2311.2726139110     -3090.1085788051      -409.7989740053       427.3514603066       615.7014790682 
  102000       290.1010680791     11248.7359521971         0.7899208783       276.9816887710      -588.6192266540       276.8256490898       315.6573308032        17.4729663046      2305.6441314507     -3089.4820150334      -414.7372892690       -46.7219585579     -1973.1857980658 
  103000       293.1006668246     11208.9831591682         0.7927223422       276.1358315382      -598.4152592076       263.6584062302       322.7614100542        16.8258116496      2280.6929282512     -3088.5318122871      -393.8220031056       182.3495654629      -573.7162347589 
  104000       288.5509713435     10937.3899868806         0.8124069265       270.9480958351      -590.0276551180       251.1375004774       336.2794752516        13.0337101447      2310.8021138711     -3089.6191462416      -411.6613086212       955.7673991469      4293.2522517546 
  105000       293.7166403601     11245.8346192131         0.7901246714       257.8705957215      -618.5184312294       250.9069338207       312.5922786786        11.8780442857      2291.7525865165     -3090.2914384724      -395.3568360586       410.6839476687       931.7378112565 
  106000       305.0716073637     11061.4294142488         0.8032968481       291.2693499087      -619.0005238038       264.9100795209       306.5588300884         7.3083974644      2311.1662216016     -3089.3754714128      -419.5685810663       153.0812397640      -856.6107805435 
  107000       290.7582252742     11084.9560456496         0.8015919366       224.3012570782      -643.2604779795       245.9672182521       308.4018786867         4.7525083741      2310.3685830035     -3089.7325836703      -423.0180826257       311.3597743730       538.5194599399 
  108000       303.0319973430     11185.8173132850         0.7943640715       322.9532836577      -581.2308203170       268.1040159467       337.7068343119         6.0230114999      2311.0903594983     -3090.3315202551      -413.8235213187       318.4161206997       -27.8125472569 
  109000       296.1454251832     10960.9449512070         0.8106610719       311.6112439847      -572.0247689226       290.2370450210       321.0611308363         9.4775183831      2330.3081512033     -3090.2735755789      -432.8350387873       567.0754645088      1598.1082624286 
  110000       291.7475201076     11348.9869344216         0.7829431327       258.7415242454      -611.7720596940       253.6985615833       319.0098480339         9.8709459634      2301.3494213153     -3089.7876794875      -405.9131571023       323.0877073042       388.7673683245 
Loop time of 59.3913 on 64 procs for 50000 steps with 1002 atoms

Performance: 72.738 ns/day, 0.330 hours/ns, 841.874 timesteps/s
99.3% CPU use with 64 MPI tasks x no OpenMP threads

MPI task timing breakdown:
Section |  min time  |  avg time  |  max time  |%varavg| %total
---------------------------------------------------------------
Pair    | 6.4338     | 9.9691     | 14.084     |  65.1 | 16.79
Bond    | 0.24054    | 0.26573    | 0.29069    |   2.3 |  0.45
Kspace  | 7.4906     | 11.619     | 15.219     |  60.4 | 19.56
Neigh   | 20.152     | 20.525     | 20.715     |   3.6 | 34.56
Comm    | 15.142     | 15.353     | 15.763     |   4.5 | 25.85
Output  | 0.029875   | 0.029927   | 0.030661   |   0.1 |  0.05
Modify  | 1.0836     | 1.139      | 1.1747     |   1.9 |  1.92
Other   |            | 0.4907     |            |       |  0.83

Nlocal:    15.6562 ave 23 max 10 min
Histogram: 3 4 5 22 11 5 6 3 3 2
Nghost:    4661.05 ave 4804 max 4458 min
Histogram: 1 4 5 7 5 7 13 9 7 6
Neighs:    11853.7 ave 22483 max 5524 min
Histogram: 4 8 12 16 7 9 5 2 0 1

Total # of neighbors = 758639
Ave neighs/atom = 757.125
Ave special neighs/atom = 5
Neighbor list builds = 50000
Dangerous builds not checked
unfix anneal
undump anneal

# RETURN TO LESS FREQUENT NEIGHBOR BUILDS
neigh_modify every 1 delay 10 check yes one 10000 # More relaxed rebuild criteria can be used

#===========================================================
# RUN EQUILIBRIUM SIM
#===========================================================

# UPDATE RUN PARAMETERS AND CREATE FIX
fix equil all npt temp ${FINAL_TEMP} ${FINAL_TEMP} 100.0 iso ${pressure} ${pressure} 1000.0 # NPT, nose-hoover 100 fs T relaxation
fix equil all npt temp 298.0 ${FINAL_TEMP} 100.0 iso ${pressure} ${pressure} 1000.0 
fix equil all npt temp 298.0 298.0 100.0 iso ${pressure} ${pressure} 1000.0 
fix equil all npt temp 298.0 298.0 100.0 iso 1.0 ${pressure} 1000.0 
fix equil all npt temp 298.0 298.0 100.0 iso 1.0 1.0 1000.0 

# CREATE COORDINATE DUMPS FOR EQUILIBRIUM
dump equil all custom ${coords_freq} equil.lammpstrj id type x y z mol
dump equil all custom 1000 equil.lammpstrj id type x y z mol
dump_modify equil sort id format float %20.10g

# RUN EQUIL
run		${nSteps_equil}
run		100000
PPPM initialization ...
WARNING: Using 12-bit tables for long-range coulomb (../kspace.cpp:321)
  G vector (1/distance) = 0.186193
  grid = 8 8 8
  stencil order = 5
  estimated absolute RMS force accuracy = 0.00740879
  estimated relative force accuracy = 2.23114e-05
  using double precision FFTs
  3d grid and FFT values/proc = 343 8
Per MPI rank memory allocation (min/avg/max) = 11.03 | 11.05 | 11.07 Mbytes
Step Temp Volume Density TotEng PotEng E_bond E_angle E_dihed E_coul E_long E_vdwl Enthalpy Press 
  110000       291.7475201076     11348.9869344216         0.7829431327       258.7410967058      -611.7724872335       253.6985615833       319.0098480339         9.8709459634      2309.2628998480     -3097.7015855598      -405.9131571023       323.0876433370       388.7695649592 
  111000       298.8692572181     11202.0756390718         0.7932111575       305.1730257397      -586.5903322976       281.9111051477       323.2101870531        14.1104613866      2291.2286084497     -3097.1054566980      -399.9452376369         0.7338480446     -1863.4860673181 
  112000       305.9195550937     11108.5927797351         0.7998863186       324.6207511314      -588.1792212678       276.2666126914       322.7514694876         0.1223214598      2336.3034072002     -3098.8412775471      -424.7817545596        95.5578188894     -1413.9038589785 
  113000       302.5546845458     11197.4418821248         0.7935394063       316.3267037730      -586.4331986400       257.3198000525       322.1660765276         7.0757727562      2317.2402208545     -3096.1348155519      -394.1002532790       666.0280508911      2141.4236704843 
  114000       313.2331440112     11193.8139233671         0.7937965955       352.8076945069      -581.8144976584       262.3012381204       318.8993407862        13.4760855173      2301.9732881019     -3097.7652650896      -380.6991850945       690.7488104411      2070.0796745035 
  115000       296.9401252756     11663.6056636195         0.7618237139       358.1623039766      -527.8449278028       271.4639731894       350.6781462450         5.0201065417      2344.2536613964     -3096.4971446823      -402.7636704929       336.5974751759      -126.7760736475 
  116000       289.9583307060     11166.4606998210         0.7957410698       286.0780066599      -579.0970102959       263.5429614887       341.9734105790        13.0135653896      2279.3596818791     -3098.1415409538      -378.8450886784       274.9469712537       -68.3508835634 
  117000       290.0069033257     10772.3483288094         0.8248537006       295.6236218507      -569.6963256439       265.6041859316       324.7217185512        18.3515110327      2346.7144069057     -3096.4605118147      -428.6276362504       766.7092104968      2998.5655083601 
  118000       294.9796870170     11280.2663195634         0.7877129078       247.0989513571      -633.0587426645       249.0241330481       310.2811390991         9.2236897938      2280.6071655669     -3097.8058839078      -384.3889862646      -185.7232795024     -2630.9604317874 
  119000       300.0050905865     11077.6054370044         0.8021238375       301.5342376007      -593.6182096598       263.7700274653       325.5153522889         8.7481603579      2304.6936925149     -3098.7873530480      -397.5580892388       190.5287952584      -687.1040209064 
  120000       293.8174890538     10841.0087447191         0.8196295744       316.7927165907      -559.8972217708       271.7220439611       330.4715823634        13.5195797466      2344.5979391229     -3098.1989701576      -422.0093968072       725.9296462080      2587.7546492614 
  121000       317.8698565112     11083.5604988315         0.8016928662       348.3412102497      -600.1159622937       281.6465772412       303.8474346505        11.2070568239      2318.5335340548     -3096.3104547343      -419.0401103298        50.3213031558     -1843.6992941062 
  122000       284.6258689904     11138.5649637333         0.7977339462       282.5190093490      -566.7450570783       251.6421120719       343.9985309768        13.9535752649      2330.8796887583     -3096.3347152267      -410.8842489235       426.1481116762       884.1731341978 
  123000       312.9359122445     10929.2797531396         0.8130097851       378.4099616216      -555.3253531149       266.7574854311       335.1060578852         9.3869470507      2324.2764412134     -3097.8995814852      -392.9527032102       568.4161865793      1192.0662641785 
  124000       295.8229492013     11273.5308635151         0.7881835328       318.9694648735      -563.7043471464       283.3829713355       332.8592053093        10.8285565727      2292.4927571662     -3098.7934921440      -384.4743453862       475.2943726609       950.8069194805 
  125000       295.7950145796     11006.2973145725         0.8073206756       299.2522400867      -583.3382208644       273.7393211790       314.3154403304         6.0596886831      2340.4012437312     -3096.8245636305      -421.0293511576        39.4823698960     -1618.3470021433 
  126000       287.6980777773     11379.2774161377         0.7808590175       263.0500481018      -595.3808468240       247.2017444569       308.1098651261        13.3434481344      2334.6005960624     -3094.6489255136      -403.9875750902       208.3057600612      -329.8741144954 
  127000       301.0684162692     11644.4938928607         0.7630740731       373.2132346308      -525.1119540831       286.5007153464       325.4114422862        14.9241803327      2321.8850203468     -3097.0853797179      -376.7479326774       489.7384259515       686.1567149205 
  128000       297.4914798795     11674.1601105685         0.7611349596       316.8948330127      -570.7575255945       255.9447729654       329.3398300414         9.8956492768      2319.1127904451     -3096.1587651740      -388.8918031493       175.5409202440      -830.2450592419 
  129000       298.0152576192     11215.6038628995         0.7922543888       316.9368525608      -572.2783492788       259.5952385880       322.0987761414        17.0364875218      2325.0357077858     -3097.3044341128      -398.7401252029       439.5995854853       749.9185312724 
  130000       278.7769624387     11976.9855055094         0.7418904681       251.1353096885      -580.6768428286       248.7267722226       313.5888310576        11.1221219550      2316.7798918455     -3097.3099884127      -373.5844714967      -133.7227893822     -2203.3181756004 
  131000       288.9186462719     11290.4952970033         0.7869992547       318.0748300025      -543.9979860416       269.9018328611       329.7482072890         6.5147763090      2354.4351080639     -3097.7064561350      -406.8914544296       435.0799775810       710.5850811021 
  132000       294.3751346620     11182.4064069170         0.7946063719       308.1208698891      -570.2329663413       274.9990641421       333.9074073240        13.9470596968      2303.8218702985     -3096.3377442569      -400.5706235459       120.8359117833     -1148.3961737174 
  133000       296.0792961037     11752.5601121141         0.7560575142       332.4358120908      -551.0028854735       273.2068002720       322.3557985639         7.0271726253      2336.7925679835     -3097.2449893023      -393.1402356160       283.7754070129      -283.9012791782 
  134000       289.4319392946     11485.6567428350         0.7736267575       304.7470481876      -558.8573268861       273.6576257304       326.7616597689         2.5295970156      2319.5802811823     -3097.1386315806      -384.2478590026       205.5584661564      -592.1475809578 
  135000       295.7448134013     11387.6034937253         0.7802880903       269.8478738942      -612.5927972398       251.0034641186       304.3374745419         6.3021784779      2307.8115699431     -3098.0360564986      -384.0114278227       280.9616533300        66.9196324748 
  136000       308.3418078876     11271.3988067331         0.7883326228       408.0417901271      -511.9856780192       255.3646494722       367.2895420666        19.0304667738      2366.2403287053     -3097.5223984672      -422.3882665698       840.4905076790      2630.7580487352 
  137000       303.2394952094     11406.6366152334         0.7789861011       293.7998288230      -611.0034053889       242.9857989356       319.6637005530        10.6878382440      2306.3016281600     -3097.9380228292      -392.7043484523       656.1815989042      2178.3760136778 
  138000       302.4195538709     11576.5065769469         0.7675555077       278.7580812313      -623.5986195091       255.5477780087       304.8333288207        11.5805302151      2283.0028473517     -3097.4323199949      -381.1307839104       287.5948384555        52.3406981696 
  139000       298.2080067126     11320.2551248042         0.7849303117       332.5366160063      -557.2537088164       292.3553248930       324.5561210525        13.7390527510      2298.7162518304     -3098.5553666814      -388.0650926620      -170.8796226329     -3049.2646312461 
  140000       299.3420067100     11176.5867155893         0.7950201264       333.0003714663      -560.1735721840       271.3067357745       337.0781469748        11.0603636902      2337.0714038538     -3096.5611701661      -420.1290523112      -107.3602002170     -2701.6142939867 
  141000       307.5492676784     11333.9558692647         0.7839814700       345.7234384559      -571.9392554579       245.5927418090       350.5923286835         7.9694590557      2342.5379118185     -3098.0619250785      -420.5697717461       573.7628967221      1379.5981201209 
  142000       287.2291808021     11084.7608101715         0.8016060550       294.5632870949      -562.4685173222       267.2347850067       328.5998958976        16.0266044722      2340.7264263521     -3097.7826708590      -417.2735581918       406.0469406505       689.6186172739 
  143000       296.4134199414     11044.4866598875         0.8045291427       297.8964903514      -586.5391628660       274.6245410110       321.7944790248         2.8359312906      2330.0207121299     -3097.7281558387      -418.0866704837       122.3893250179     -1089.6158887824 
  144000       309.1355870613     10790.4399879149         0.8234707198       328.1242294147      -594.2717097750       256.6044437202       328.4437682946         6.7037630963      2310.9757136858     -3097.0772141554      -399.9221844165       133.5977061310     -1236.1289615589 
  145000       305.9248879092     11273.0828011253         0.7882148602       318.8108638896      -594.0050205156       255.0357578323       330.4895666123         7.0644383320      2304.7254784876     -3096.2642921216      -395.0559696581       465.1131505767       889.8822164253 
  146000       314.6209625160     11025.8154389209         0.8058915400       301.3009745898      -637.4621777454       246.0898383026       295.9154876172        15.1654225406      2333.3195009247     -3098.5957674786      -429.3566596520       404.7932307447       643.6077230413 
  147000       288.0100788316     11672.5446206663         0.7612403013       354.3286261171      -505.0332147030       279.0523201036       332.8053918978        11.4087957906      2360.1100129996     -3096.6457594358      -391.7639760589      -149.6648585443     -2960.6255993548 
  148000       294.2083024403     10831.5736362683         0.8203435329       285.0423518931      -592.8136918791       257.7495602069       319.2790943541        16.2726475452      2333.8326816859     -3098.0030730585      -421.9446026127       380.8124042297       606.2646955750 
  149000       290.7535068607     11361.1195646443         0.7821070215       317.7033414804      -549.8443148179       287.7354192509       338.8906271179        12.7299383453      2322.2858042461     -3097.2194049166      -414.2666988615        52.5140276728     -1600.5122399479 
  150000       300.2495029355     11809.4699365349         0.7524140737       352.7031926290      -543.1785299646       284.2870481406       322.2848800358         9.7754788383      2308.9863181595     -3097.3959586380      -371.1162965008       180.3923584823     -1000.4751143160 
  151000       299.0437712375     11486.1130130644         0.7735960262       289.2399783159      -603.0440930575       253.1899346120       327.9562353636        15.2596110535      2299.8255999510     -3098.3073178060      -400.9681562316       295.2624002622        35.9519296776 
  152000       293.1557020824     11363.1654102687         0.7819662095       312.1474073566      -562.5678970883       289.8211519359       321.8896748405        10.4631577702      2296.7794972645     -3096.6781131934      -384.8432657061       400.0319327672       530.3190082041 
  153000       303.4719168749     11226.7739350314         0.7914661358       293.0819264864      -612.4148053668       245.3753892934       345.4087898776        11.0881598063      2284.3384561767     -3098.9195597914      -399.7060407295       225.6253482517      -411.9964183514 
  154000       299.2079406678     11502.9651319561         0.7724626895       253.5431717642      -639.2307468546       251.0931723401       308.8782838411        15.2144010344      2278.5205162712     -3097.0488160676      -395.8883042738       -93.4652280832     -2068.4941400998 
  155000       297.1563374517     11715.2064652029         0.7584681849       345.2001625283      -541.4522011659       266.7105676199       353.1501497776         6.7807984402      2322.3373694855     -3098.2205514793      -392.2105350098       306.0424131680      -229.1880059115 
  156000       297.1097944733     10932.8841517868         0.8127417487       282.3974500440      -604.1160391368       271.5951041661       325.0548022454         8.3642447655      2298.6839907878     -3097.1904705795      -410.6237105219       338.8287660956       353.9236165225 
  157000       296.1334226990     11394.0538922428         0.7798463539       307.8857112589      -575.7144887458       268.1810396200       353.4573684553         8.2812907911      2288.3573338219     -3097.5361662869      -396.4553551472       351.9517638251       265.1856317639 
  158000       285.4100387116     11545.8187905741         0.7695956038       233.0533834416      -618.5504814326       260.2642170301       313.6727014953        16.0259737766      2268.3548942795     -3097.7583913267      -379.1098766874      -144.4882093613     -2242.1474894620 
  159000       302.5650949004     11297.5408106333         0.7865084564       333.2167518453      -569.5742128886       271.1139401779       318.4709131515        14.1787646063      2297.7724837606     -3098.3444424622      -372.7658721226       295.1767175388      -230.8772238723 
  160000       294.6732351761     11140.0083582029         0.7976305850       311.7671141013      -567.4761917185       261.8554455228       330.7374929449        17.9671341064      2332.4944660052     -3097.4805555472      -413.0501747505       386.5037917129       460.0154112474 
  161000       299.2352274333     11223.7846589911         0.7916769302       283.6318215951      -609.2235150253       263.4566317345       312.5601558455         9.5622301260      2296.5310787363     -3098.1377456254      -393.1958658423       334.0234297291       307.8527256203 
  162000       288.2942942766     11587.0192738511         0.7668591183       280.1553975638      -580.0544827032       250.7521023260       318.0710514810         7.4065015872      2330.2839481554     -3097.8539281810      -388.7141580717       582.6909557008      1790.3123497350 
  163000       302.5340700925     10889.8263562438         0.8159552864       302.8160024345      -599.8823907611       277.8698064882       304.7631914729        12.6689765704      2316.8681248371     -3098.3348219058      -413.7176682239       528.2618021130      1419.5323824879 
  164000       315.2553492883     11222.4742310849         0.7917693728       395.0444088827      -545.6116209057       282.8915198996       331.9913097121         6.1137881078      2349.2660194305     -3096.1948595591      -419.6793984966       330.1125996330      -396.7281324652 
  165000       291.2708154849     11030.5591150217         0.8055449675       324.3265458722      -544.7646511710       270.5021045772       344.2003704828         8.0847660349      2347.3161781911     -3097.8828263258      -416.9852441313       590.7881534697      1656.3847671541 
  166000       302.8109482745     11046.3917897474         0.8043903885       291.3101940459      -612.2143457386       265.9484758039       308.2593469489        13.2412441551      2320.3163146485     -3098.5593079092      -421.4204193859       266.8856098222      -151.6110472203 
  167000       305.8488336024     11052.5519639217         0.8039420590       308.0419133581      -604.5470409017       265.8865703555       308.7563647187        10.4064646298      2318.8580954414     -3098.7753859192      -409.6791501280        77.3898397110     -1430.9317122481 
  168000       289.4668283855     11188.0896892395         0.7942027308       253.6888552785      -610.0196215458       270.1387283801       318.5326754410         6.8151104435      2302.7890050270     -3097.8756831463      -410.4194576910       394.7359562038       864.4349857236 
  169000       291.3626557235     11050.1060654323         0.8041200085       324.9672365862      -544.3979925215       274.8104941579       334.9290759538        11.2418739555      2349.2851627103     -3096.7631962249      -417.9014030742       322.1268034384       -17.6255320721 
  170000       298.6449221649     11256.2360399510         0.7893945500       344.8792081155      -546.2147810405       283.2127791075       332.8001906409        16.1708145771      2331.6309796190     -3096.2960846931      -413.7334602918       390.7236543698       279.2657336832 
  171000       302.5673204584     11182.5338622300         0.7945973152       309.5752823981      -593.2223229357       248.6674022266       321.1581459014         5.0729379007      2331.6559695729     -3097.9981810399      -401.7785974973       550.8165547230      1479.2292945136 
  172000       296.9136637025     11328.3002245494         0.7843728721       322.5863516742      -563.3419243051       256.9488489504       332.1239119676         9.4219851725      2328.0616224387     -3097.4438031564      -392.4544896780      -227.2235494428     -3327.9126368140 
  173000       305.8932661495     11319.6583749552         0.7849716917       354.6493238626      -558.0722078251       286.3980499761       317.4159784548        14.0618627886      2331.9983737413     -3097.0476054416      -410.8988673443       328.4510732599      -158.6949411452 
  174000       294.7849434173     11307.9961178642         0.7857812552       357.9857125067      -521.5909073421       263.1001252709       349.5608608240         8.0744926711      2366.2941177567     -3097.4054578959      -411.2150459689       241.4440804710      -706.6747199868 
  175000       297.7727757346     11264.1903917810         0.7888371090       311.3679144758      -577.1237721329       259.4938157544       315.4845144423         7.0233677539      2335.8759585176     -3098.0902601876      -396.9111684135       173.7762949425      -837.5603519242 
  176000       288.3329245420     11468.5391560682         0.7747814489       307.8755345357      -552.4496103644       269.6571077527       310.9500273862        14.7280153418      2353.0062759694     -3096.7599204899      -404.0311163246       283.5975394168      -145.1539400118 
  177000       297.1893402977     11546.7701582104         0.7695321949       311.7816162765      -574.9692210081       264.7345044983       317.9913000346        11.2255376422      2299.7470310471     -3095.7919113181      -372.8756829121       569.5655112019      1530.8032328844 
  178000       309.7044518209     11767.2112907261         0.7551161583       377.4053461205      -546.6879665395       272.9200482725       308.2975360682        13.5544746467      2317.1889514827     -3096.0981625612      -362.5508144484       627.6445440696      1458.1624099636 
  179000       296.4913052759     11258.2394952802         0.7892540736       288.6058643881      -596.0621823784       264.8318256111       320.6068051966         4.3585823990      2303.0523161965     -3097.7593037976      -391.1524079840      -106.1793444052     -2404.4430786666 
  180000       301.5602910515     11525.8232547388         0.7709307342       343.6260646746      -556.1667755190       264.3224328809       346.4714817468         8.5655151946      2294.9143523188     -3096.7584268364      -373.6821308236       159.5536131096     -1095.0676554742 
  181000       296.2143165342     11481.8184596289         0.7738853749       349.3548121460      -534.4867581447       267.4243330951       339.0742533346         9.9107483489      2338.0497096454     -3097.2530100830      -391.6927924857       556.5008382354      1237.0579392488 
  182000       307.7247000033     11522.3654609374         0.7711620859       351.3932823829      -566.7928648984       261.8959405553       326.7046537754         5.8815930170      2315.1385571699     -3097.4435753698      -378.9700340463        30.8365637227     -1907.6001529937 
  183000       305.4806263403     11171.2190217673         0.7954021281       324.1264720073      -587.3638287894       266.7975392657       307.8597872188         5.6784122223      2347.0572377923     -3097.1055199025      -417.6512853860       631.1661149958      1884.5948343565 
  184000       298.6288600636     11529.7378308303         0.7706689878       308.7025650357      -582.3434981692       259.8292116340       289.6481096135        17.3683943492      2354.5208728049     -3098.5957844911      -405.1143020797       797.1002006186      2904.5458147471 
  185000       303.1802147220     11388.1955987908         0.7802475209       360.9371574234      -543.6891962122       275.9693556052       334.5249514150         9.8187766683      2326.0076390386     -3096.7022194610      -393.3076994783       104.9445652827     -1541.3334046259 
  186000       304.7123219183     11411.9407066600         0.7786240406       335.8405347095      -573.3573063748       261.0264327767       324.4948910718         9.4008141269      2308.3330408025     -3096.7415655691      -379.8709195837        86.1467540380     -1500.2800326513 
  187000       298.8283133021     11379.5568410992         0.7808398436       331.8173219837      -559.8238679713       267.9998210722       330.1820672490         8.5421935744      2346.0689423167     -3097.4330399533      -415.1838522303       461.2182341790       779.7153766780 
  188000       296.7653080756     11180.9831273456         0.7947075210       289.3624204077      -596.1231934083       257.2148139161       319.8157697324        13.2688260283      2318.9588711897     -3097.3815753720      -407.9998989028       761.3652139303      2894.6008645937 
  189000       296.8973691560     11815.2369376787         0.7520468214       337.3388595453      -548.5407969153       259.1745379836       321.5105625491         6.1564243554      2365.0685371682     -3096.3844235431      -404.0664354285       -98.0267049147     -2526.5956880985 
  190000       285.9185558840     11018.9841420609         0.8063911581       257.8235465444      -595.2976272210       258.7860441065       314.8390916348         5.5450503211      2360.3178631999     -3097.6933357649      -437.0923407184       603.6904194032      2152.2440696154 
  191000       289.1799794679     11201.0491697142         0.7932838477       292.0483062777      -570.8042733679       255.5607697926       317.8844378032         9.8029383098      2378.0599777006     -3098.1893420756      -433.9230548985       110.8808557896     -1109.0358359598 
  192000       295.8312216929     11331.6373564930         0.7841418768       299.3217433876      -583.3767520171       235.2581320726       323.0099453697        13.5769892258      2342.9665694945     -3098.3216323474      -399.8667558324        86.3860636540     -1288.4865264339 
  193000       293.7017618887     11813.5763358273         0.7521525346       337.6905186903      -538.6541140139       257.3286995641       336.6026024792        16.2579565324      2360.2457490688     -3098.3724037037      -410.7167179547       197.7811496993      -812.0626136108 
  194000       294.6800390552     11529.9457461886         0.7706550906       317.3139040374      -561.9497031347       273.4265751041       326.1189436518        11.8096170202      2313.1525177842     -3097.6843943402      -388.7729623548       200.3372145600      -695.6586237249 
  195000       283.9788158421     11368.1398351736         0.7816240399       279.9082631493      -567.4251320082       247.2758768506       322.2675805407        10.9677854676      2339.0195264663     -3096.2510024608      -390.7048988727       915.5792817460      3834.1324824094 
  196000       301.0570514962     11274.8521126177         0.7880911692       384.9228182617      -513.3684603463       278.7999695582       333.5371652148        11.1953134719      2370.0930725330     -3097.4653407896      -409.5286403346       492.1550751740       652.1367925631 
  197000       301.8056957438     11289.1098558634         0.7870958381       300.8877137600      -599.6373627115       248.4565125947       304.1055085801        10.9871793743      2333.7349861519     -3097.2935787675      -399.6279706449       362.4770236868       374.0845307151 
  198000       291.6012184336     11347.9137651274         0.7830171754       343.2452175753      -526.8318327663       259.7378469286       341.5484278440        13.1409567158      2361.1955398604     -3097.3985474672      -405.0560566480       307.3483878229      -216.9023109085 
  199000       306.6242226115     11120.5317764892         0.7990275611       283.5493088747      -631.3532440234       249.5159406852       302.0671756093        19.6621887935      2286.4469854458     -3098.3722966042      -390.6732379530       434.3185414594       929.6324597491 
  200000       291.7326894348     11320.5452868379         0.7849101928       267.0708977202      -603.3984345931       246.0155785057       318.7971199492        15.2240720496      2325.9586283157     -3096.9059399561      -412.4878934573       757.8124821761      2972.4162368620 
  201000       310.6206931898     11015.6962270496         0.8066318461       301.0500462267      -625.7771390554       250.1066574821       318.5181451652        13.2584325512      2305.0503036083     -3097.6296407585      -415.0810371036       114.6346910692     -1160.3629195421 
  202000       289.1063974521     11215.8793707208         0.7922349278       230.7317987074      -631.9012275922       256.8785785917       301.1317798806        16.9597124277      2307.3089921172     -3097.1631854520      -417.0171051574      -243.3451005639     -2898.2748919364 
  203000       288.3495838841     11109.3470348293         0.7998320113       305.1918787828      -555.1829741096       259.2347282420       343.4583427312        13.6456777671      2331.2508972844     -3095.9128553954      -406.8597647389       199.3296355050      -653.3962983736 
  204000       294.5462060800     11618.0159228283         0.7648131525       332.6182172270      -546.2460603368       268.0139814257       317.6155212688        10.1958332605      2366.6917431687     -3098.1527640289      -410.6103754316       277.1729860950      -327.2324330836 
  205000       299.3563033868     11350.4574870350         0.7828416955       278.3669736186      -614.8496283252       263.3451009065       303.5485323113         5.8582028886      2326.5693532955     -3097.1076764479      -417.0631412791       302.9672516389       148.6109325842 
  206000       306.8872147898     11755.2331855859         0.7558855910       388.3937059810      -527.2935605749       278.7733050897       343.3501590672        15.1354967888      2333.2907525197     -3098.1151885066      -399.7280855337       514.9986422971       738.4880994970 
  207000       290.8063209920     11120.7830974921         0.7990095037       276.8189477607      -590.8862948600       256.8068599682       302.2782273504        13.3345702225      2318.8041450551     -3097.4447227888      -384.6653746674       678.8684260591      2478.9527173424 
  208000       316.5231736694     11555.7205938022         0.7689361569       432.1785191393      -512.2604334496       275.5698782147       336.7002499701        12.6890685968      2364.3909256135     -3097.3946524391      -404.2159034055       109.9182282501     -1912.2024614858 
  209000       296.9516874162     11176.0412130807         0.7950589313       292.7076136784      -593.3341171106       274.4429979208       310.5147911169         6.1770906972      2331.8442180448     -3095.3178486857      -420.9953662045       323.2682679433       187.4989170454 
  210000       310.3496888501     11500.4529150015         0.7726314302       369.5368736909      -556.4816913194       270.2344964825       323.0408288124        12.7221381524      2328.0418873688     -3097.4135239357      -393.1075181998       753.7756090610      2290.9220411275 
Loop time of 59.594 on 64 procs for 100000 steps with 1002 atoms

Performance: 144.981 ns/day, 0.166 hours/ns, 1678.022 timesteps/s
99.3% CPU use with 64 MPI tasks x no OpenMP threads

MPI task timing breakdown:
Section |  min time  |  avg time  |  max time  |%varavg| %total
---------------------------------------------------------------
Pair    | 12.085     | 18.425     | 26.214     |  94.0 | 30.92
Bond    | 0.46302    | 0.50223    | 0.53662    |   2.3 |  0.84
Kspace  | 15.563     | 23.375     | 29.641     |  83.3 | 39.22
Neigh   | 1.5486     | 1.5705     | 1.5865     |   0.8 |  2.64
Comm    | 12.658     | 12.811     | 12.994     |   2.7 | 21.50
Output  | 0.047392   | 0.047439   | 0.047997   |   0.0 |  0.08
Modify  | 2.0361     | 2.1244     | 2.1999     |   2.2 |  3.56
Other   |            | 0.7387     |            |       |  1.24

Nlocal:    15.6562 ave 23 max 7 min
Histogram: 1 3 2 11 8 15 10 2 8 4
Nghost:    4629.45 ave 4757 max 4474 min
Histogram: 3 1 6 6 9 13 8 6 11 1
Neighs:    11698.8 ave 21640 max 5111 min
Histogram: 7 5 6 19 7 10 6 1 2 1

Total # of neighbors = 748724
Ave neighs/atom = 747.23
Ave special neighs/atom = 5
Neighbor list builds = 3756
Dangerous builds = 0
unfix equil
undump equil

# WRITE RESTART FILES, CLEANUP, AND EXIT
write_restart   md-17.end.restart
PPPM initialization ...
WARNING: Using 12-bit tables for long-range coulomb (../kspace.cpp:321)
  G vector (1/distance) = 0.185922
  grid = 8 8 8
  stencil order = 5
  estimated absolute RMS force accuracy = 0.00750692
  estimated relative force accuracy = 2.26069e-05
  using double precision FFTs
  3d grid and FFT values/proc = 343 8
write_data      md-17.end.data pair ii
PPPM initialization ...
WARNING: Using 12-bit tables for long-range coulomb (../kspace.cpp:321)
  G vector (1/distance) = 0.185922
  grid = 8 8 8
  stencil order = 5
  estimated absolute RMS force accuracy = 0.00750692
  estimated relative force accuracy = 2.26069e-05
  using double precision FFTs
  3d grid and FFT values/proc = 343 8
unfix		averages
Total wall time: 0:03:19
