
#===========================================================
# GENERAL PROCEDURES
#===========================================================
units		real	# g/mol, angstroms, fs, kcal/mol, K, atm, charge*angstrom
dimension	3	# 3 dimensional simulation
newton		on	# use Newton's 3rd law
boundary	p p p	# periodic boundary conditions
atom_style	full    # molecular + charge

#===========================================================
# FORCE FIELD DEFINITION
#===========================================================
special_bonds  lj   0.0 0.0 0.0  coul 0.0 0.0 0.0     # NO     1-4 LJ/COUL interactions
pair_style     hybrid lj/cut/coul/long 14.0 14.0 # outer_LJ outer_Coul (cutoff values, see LAMMPS Doc)
kspace_style   pppm 0.0001          # long-range electrostatics sum method
bond_style     harmonic             # parameters needed: k_bond, r0
angle_style    harmonic             # parameters needed: k_theta, theta0
dihedral_style hybrid opls            # parameters needed: V1, V2, V3, V4
pair_modify    shift yes mix arithmetic       # using Lorenz-Berthelot mixing rules

#===========================================================
# SETUP SIMULATIONS
#===========================================================

# READ IN COEFFICIENTS/COORDINATES/TOPOLOGY
read_data ${data_name}
read_data md-20.data
  orthogonal box = (-11.2992 -11.2992 -11.2992) to (11.2992 11.2992 11.2992)
  4 by 4 by 4 MPI processor grid
  reading atoms ...
  1002 atoms
  reading velocities ...
  1002 velocities
  scanning bonds ...
  1 = max bonds/atom
  scanning angles ...
  6 = max angles/atom
  scanning dihedrals ...
  3 = max dihedrals/atom
  reading bonds ...
  835 bonds
  reading angles ...
  1169 angles
  reading dihedrals ...
  501 dihedrals
  4 = max # of 1-2 neighbors
  3 = max # of 1-3 neighbors
  4 = max # of 1-4 neighbors
  5 = max # of special neighbors
include ${settings_name}
include md-20.in.settings
     # Non-bonded interactions (pair-wise)
     pair_coeff           1          1          lj/cut/coul/long     0.007849             2.469683
     pair_coeff           1          2          lj/cut/coul/long     0.001848             2.249393
     pair_coeff           1          3          lj/cut/coul/long     0.026070             3.130658
     pair_coeff           1          4          lj/cut/coul/long     0.035624             2.728157
     pair_coeff           2          2          lj/cut/coul/long     0.001000             1.783337
     pair_coeff           2          3          lj/cut/coul/long     0.003908             3.074211
     pair_coeff           2          4          lj/cut/coul/long     0.006268             2.608373
     pair_coeff           3          3          lj/cut/coul/long     0.204253             3.439640
     pair_coeff           3          4          lj/cut/coul/long     0.179627             3.225867
     pair_coeff           4          4          lj/cut/coul/long     0.202662             2.902332

     # Stretching interactions
     bond_coeff           1           366.904251           1.096103
     bond_coeff           2           612.219900           0.957501
     bond_coeff           3           368.709924           1.411527

     # Bending interactions
     angle_coeff          1           40.926667            108.205025
     angle_coeff          2           61.328715            112.232133
     angle_coeff          3           49.873049            108.741688

     # Dihedral interactions
     dihedral_coeff       1          opls                  0.105414            -0.205941             0.372587            -0.070860

# SET RUN PARAMETERS
timestep	1.0		# fs
run_style	verlet 		# Velocity-Verlet integrator
neigh_modify every 1 delay 0 check no one 10000 # More relaxed rebuild criteria can be used

#===========================================================
# RUN CONSTRAINED RELAXATION
#===========================================================

# SET OUTPUTS
thermo_style    custom step temp vol density etotal pe ebond eangle edihed ecoul elong evdwl enthalpy press
thermo_modify   format float %20.10f
thermo ${thermo_freq}
thermo 1000

# DECLARE RELEVANT OUTPUT VARIABLES
variable        my_step equal   step
variable        my_temp equal   temp
variable        my_rho  equal   density
variable        my_pe   equal   pe
variable        my_ebon equal   ebond
variable        my_eang equal   eangle
variable        my_edih equal   edihed
variable        my_evdw equal   evdwl
variable        my_eel  equal   (ecoul+elong)
variable        my_ent  equal   enthalpy
variable        my_P    equal   press
variable        my_vol  equal   vol

fix  averages all ave/time ${dump4avg} $(v_avg_freq/v_dump4avg) ${avg_freq} v_my_temp v_my_rho v_my_vol v_my_pe v_my_edih v_my_evdw v_my_eel v_my_ent v_my_P file thermo.avg
fix  averages all ave/time 100 $(v_avg_freq/v_dump4avg) ${avg_freq} v_my_temp v_my_rho v_my_vol v_my_pe v_my_edih v_my_evdw v_my_eel v_my_ent v_my_P file thermo.avg
fix  averages all ave/time 100 10 ${avg_freq} v_my_temp v_my_rho v_my_vol v_my_pe v_my_edih v_my_evdw v_my_eel v_my_ent v_my_P file thermo.avg
fix  averages all ave/time 100 10 1000 v_my_temp v_my_rho v_my_vol v_my_pe v_my_edih v_my_evdw v_my_eel v_my_ent v_my_P file thermo.avg

# INITIALIZE VELOCITIES AND CREATE THE CONSTRAINED RELAXATION FIX
velocity        all create ${ANNEAL_TEMP} ${vseed} mom yes rot yes     # DRAW VELOCITIES
velocity        all create 100.0 ${vseed} mom yes rot yes     
velocity        all create 100.0 57314 mom yes rot yes     

fix relax all nve/limit 0.01
run             10000
PPPM initialization ...
WARNING: Using 12-bit tables for long-range coulomb (../kspace.cpp:321)
  G vector (1/distance) = 0.18585
  grid = 8 8 8
  stencil order = 5
  estimated absolute RMS force accuracy = 0.00753302
  estimated relative force accuracy = 2.26855e-05
  using double precision FFTs
  3d grid and FFT values/proc = 343 8
Neighbor list info ...
  update every 1 steps, delay 0 steps, check no
  max neighbors/atom: 10000, page size: 100000
  master list distance cutoff = 16
  ghost atom cutoff = 16
  binsize = 8, bins = 3 3 3
  1 neighbor lists, perpetual/occasional/extra = 1 0 0
  (1) pair lj/cut/coul/long, perpetual
      attributes: half, newton on
      pair build: half/bin/newton
      stencil: half/bin/3d/newton
      bin: standard
Per MPI rank memory allocation (min/avg/max) = 8.553 | 8.686 | 9.158 Mbytes
Step Temp Volume Density TotEng PotEng E_bond E_angle E_dihed E_coul E_long E_vdwl Enthalpy Press 
       0       100.0000000000     11540.7517762495         0.7699334979      -230.4260614442      -528.8051474492       274.4143385825       339.6271013953         8.3008929172      2347.1590460537     -3091.4704850317      -406.8360413663      -640.4946629865     -2436.3884254826 
    1000        23.7629617790     11540.7517762495         0.7699334979     -1371.8735677364     -1442.7772759003         9.2228445737        17.9201833844       -34.8699527667      2065.6075075205     -3093.6178993296      -407.0399592826     -1823.0079193195     -2680.3771573842 
    2000        20.5875569187     11540.7517762495         0.7699334979     -1414.3138619619     -1475.7428261269         8.8048879051        17.1877166002       -36.2851013629      2037.2594808131     -3094.0845085374      -408.6253015450     -1796.0280341160     -2267.9229460168 
    3000        17.1344897590     11540.7517762495         0.7699334979     -1439.8553363984     -1490.9810703329         8.2709591804        17.1296870618       -37.4481723536      2029.9077867424     -3093.7895393865      -415.0517915774     -1768.9567792674     -1955.3287991325 
    4000        14.6403912908     11540.7517762495         0.7699334979     -1458.6075563231     -1502.2914220442         8.0440408707        17.3036658637       -37.2672274597      2022.8511739958     -3094.2480738507      -418.9750014641     -1793.0224302397     -1986.8981069392 
    5000        14.6214602601     11540.7517762495         0.7699334979     -1468.3623866547     -1511.9897661394         8.5064057414        16.4834166189       -38.0248811599      2022.0089371031     -3093.9900083420      -426.9736361010     -1861.2815589367     -2334.4965205761 
    6000        14.3190948705     11540.7517762495         0.7699334979     -1478.4580847987     -1521.1832691973         8.5834723877        16.4585709061       -37.8905060608      2013.8356964741     -3093.7533968264      -428.4171060781     -1832.3364194245     -2102.5386368735 
    7000        13.2242729291     11540.7517762495         0.7699334979     -1485.8896230368     -1525.3480877334         8.6229138437        16.5740350406       -38.0310701155      2021.3978629291     -3094.0063978190      -439.9054316124     -1857.4153194946     -2207.3889666622 
    8000        12.9047136263     11540.7517762495         0.7699334979     -1490.3206940600     -1528.8256606298         8.0846141533        16.3384126364       -37.7419287213      2010.2157976889     -3093.9417959245      -431.7807604626     -1798.9719732405     -1833.8258556676 
    9000        12.0360594600     11540.7517762495         0.7699334979     -1494.7291716745     -1530.6422558823         8.4799064834        16.4834673174       -37.8157164457      2018.7587018442     -3093.9829127765      -442.5657023050     -1870.7187133674     -2233.9105311592 
   10000        12.9924335919     11540.7517762495         0.7699334979     -1498.4576030734     -1537.2243076748         8.7612786255        16.5674599698       -38.4685301780      2027.4187609514     -3093.5783071512      -457.9249698923     -1942.8563911549     -2640.3583681075 
Loop time of 11.3859 on 64 procs for 10000 steps with 1002 atoms

Performance: 75.883 ns/day, 0.316 hours/ns, 878.277 timesteps/s
99.0% CPU use with 64 MPI tasks x no OpenMP threads

MPI task timing breakdown:
Section |  min time  |  avg time  |  max time  |%varavg| %total
---------------------------------------------------------------
Pair    | 0.41659    | 1.7399     | 2.9515     |  46.6 | 15.28
Bond    | 0.0086727  | 0.044514   | 0.067428   |   6.1 |  0.39
Kspace  | 1.121      | 2.3422     | 3.6641     |  40.4 | 20.57
Neigh   | 3.9494     | 4.0306     | 4.1249     |   2.3 | 35.40
Comm    | 3.0395     | 3.1346     | 3.214      |   2.7 | 27.53
Output  | 0.0013249  | 0.0015121  | 0.0015302  |   0.1 |  0.01
Modify  | 0.0079591  | 0.0091987  | 0.010356   |   0.5 |  0.08
Other   |            | 0.08342    |            |       |  0.73

Nlocal:    15.6562 ave 26 max 2 min
Histogram: 4 1 3 4 12 9 10 12 6 3
Nghost:    4616.16 ave 4945 max 4237 min
Histogram: 2 4 4 10 8 9 11 6 6 4
Neighs:    11607.4 ave 23114 max 1214 min
Histogram: 3 4 7 9 12 11 8 6 3 1

Total # of neighbors = 742873
Ave neighs/atom = 741.39
Ave special neighs/atom = 5
Neighbor list builds = 10000
Dangerous builds not checked
unfix relax

#===========================================================
# RUN RAMPED ANNEAL
#===========================================================

# REINITIALIZE THE VELOCITIES AND CREATE THE ANNEALING FIX
velocity        all create ${ANNEAL_TEMP} ${vseed} mom yes rot yes     # DRAW VELOCITIES
velocity        all create 100.0 ${vseed} mom yes rot yes     
velocity        all create 100.0 57314 mom yes rot yes     

fix mom all momentum 1000 linear 1 1 1 angular # Zero out system linear and angular momentum every ps
fix anneal all npt temp ${ANNEAL_TEMP} ${FINAL_TEMP} 100.0 iso ${pressure} ${pressure} 1000.0 # NPT, nose-hoover 100 fs T relaxation
fix anneal all npt temp 100.0 ${FINAL_TEMP} 100.0 iso ${pressure} ${pressure} 1000.0 
fix anneal all npt temp 100.0 298.0 100.0 iso ${pressure} ${pressure} 1000.0 
fix anneal all npt temp 100.0 298.0 100.0 iso 1.0 ${pressure} 1000.0 
fix anneal all npt temp 100.0 298.0 100.0 iso 1.0 1.0 1000.0 

# CREATE COORDINATE DUMPS FOR ANNEAL
dump anneal all custom ${coords_freq} anneal.lammpstrj id type x y z mol
dump anneal all custom 1000 anneal.lammpstrj id type x y z mol
dump_modify anneal sort id format float %20.10g

# RUN RAMPED ANNEAL
run ${nSteps_ramp}
run 50000
PPPM initialization ...
WARNING: Using 12-bit tables for long-range coulomb (../kspace.cpp:321)
  G vector (1/distance) = 0.18585
  grid = 8 8 8
  stencil order = 5
  estimated absolute RMS force accuracy = 0.00753302
  estimated relative force accuracy = 2.26855e-05
  using double precision FFTs
  3d grid and FFT values/proc = 343 8
Per MPI rank memory allocation (min/avg/max) = 9.825 | 10.35 | 10.55 Mbytes
Step Temp Volume Density TotEng PotEng E_bond E_angle E_dihed E_coul E_long E_vdwl Enthalpy Press 
   10000       100.0000000000     11540.7517762495         0.7699334979     -1238.8452216698     -1537.2243076748         8.7612786255        16.5674599698       -38.4685301780      2027.4187609514     -3093.5783071512      -457.9249698923     -1510.1690888157     -1612.0481475174 
   11000        93.4171748576     10123.7534642963         0.8776993054      -989.0803859256     -1267.8176984373       107.3162960533       103.3530927146       -19.1709235220      2076.6964143369     -3093.5872931369      -442.4252848833     -1267.0635599180     -1882.7864294158 
   12000       109.3584948149      9965.8421716937         0.8916066731      -943.9104835909     -1270.2133608883        85.8528953868       112.3557456567       -17.8982498964      2103.9874168030     -3092.9815194348      -461.5296494036      -925.1257430910       129.2454626584 
   13000       108.3994542317      9801.3897215816         0.9065664805      -960.6290197232     -1284.0703204942        83.0072448627       111.4374168393        -9.6098829201      2087.6643962294     -3093.3417054415      -463.2277900639      -748.8382480576      1481.6426993784 
   14000       113.1250723028      9820.5568029269         0.9047971069      -942.0635492335     -1279.6051060130        84.3869321255       112.6802391574        -7.9630662136      2092.0177627169     -3093.5211190220      -467.2058547772      -884.5681653336       401.4403076065 
   15000       124.6609568885      9666.4372903567         0.9192229895      -900.0193075217     -1271.9815312907        96.3946401936       116.2546656652       -10.9501095944      2085.2038507053     -3093.9126314949      -464.9719467656      -932.0289263806      -227.0587150137 
   16000       119.7886520885      9884.1982319226         0.8989713860      -875.5348734604     -1232.9591586998        96.9737325746       126.9096783365       -12.8198886957      2120.0622517287     -3092.9004068328      -471.1845258110     -1159.3359976630     -1968.7781249609 
   17000       130.6428006086      9838.3799287530         0.9031579841      -841.4769149029     -1231.2877092901        98.7226330617       125.8977073907       -13.2354921888      2110.6485727653     -3093.0284973365      -460.2926329826      -707.5482297604       933.4136036379 
   18000       126.3782093424      9661.5325883835         0.9196896354      -867.0411824870     -1244.1273284324       102.2779452444       126.0024829035       -11.3364348849      2094.6050965358     -3093.9174426553      -461.7589755759      -748.5687230032       840.8053995201 
   19000       138.7561118995      9718.9237382338         0.9142587824      -798.7825002285     -1212.8017186902       107.1308047038       136.2182378994        -7.7774258408      2116.7666307151     -3094.2778198017      -470.8621463661      -796.6981987774        14.7050486997 
   20000       148.0541570381      9724.5669748401         0.9137282315      -761.9009697262     -1203.6636102889       106.5705621355       141.8531932962        -8.4459470432      2122.9964948053     -3094.0200649816      -472.6178485011      -510.2063674554      1774.7114073470 
   21000       137.5066532364      9890.4311945040         0.8984048530      -753.7053757898     -1163.9964709125       124.9993568723       153.9153603130        -3.1752235234      2117.0188792616     -3093.5254868194      -463.2293570166      -707.9028257901       317.5400743079 
   22000       145.7438608146      9794.5580371665         0.9071988088      -713.3482590390     -1148.2174588461       127.4685792991       163.2513706430        -2.7640455000      2124.0738505013     -3094.0686019222      -466.1786118673      -599.6550775447       795.9278225506 
   23000       152.3652481584      9687.8591520137         0.9171903972      -718.3296927145     -1172.9557275588       128.0522869146       149.3049601241        -7.6118076537      2122.3050436211     -3094.1958466260      -470.8103639390      -682.7113826274       252.0981188234 
   24000       164.5339553446      9817.7801506376         0.9050530005      -649.1210049810     -1140.0559171060       116.5958673758       165.6559036476        -7.2187330450      2158.8414482548     -3094.0591032740      -479.8713000652      -320.4775656740      2295.2805407815 
   25000       167.3591284234      9784.6304197324         0.9081192648      -616.1000051710     -1115.4646429067       134.8092986244       170.5916358920        -1.2278097335      2134.6639023230     -3092.9863992466      -461.3152707660      -527.0396875436       624.1139989091 
   26000       149.6515747611      9697.5026254607         0.9162783169      -680.9408938581     -1127.4698948225       137.9064820979       158.9002785047        -8.4686704866      2159.1050729098     -3094.0298711699      -480.8831866784      -768.0348529408      -615.8177998009 
   27000       166.8708654619      9764.1165105947         0.9100271770      -594.1720220992     -1092.0797852730       146.9802192296       166.2633976793        -1.8958087970      2132.0192352585     -3093.0854854848      -442.3613431586      -602.6527112448       -59.5555585790 
   28000       178.3654351273      9789.9352653645         0.9076271847      -583.5682560967     -1115.7734111783       134.1821298050       174.9567675781        -4.7264107438      2148.1619141526     -3094.3916582485      -473.9561537217      -619.1898351346      -249.4924785729 
   29000       181.6607913833      9821.9209491418         0.9046714415      -536.8776306815     -1078.9154396403       143.1491529905       190.3638095776         0.9596727110      2152.7114252922     -3094.1932133126      -471.9062868990      -538.3729032198       -10.4387388656 
   30000       168.4250018581      9803.6155632246         0.9063606510      -594.0453229681     -1096.5903041161       133.5659530784       183.7348735325         1.2069223854      2153.3712711495     -3093.9761135315      -474.4932107303      -487.2800606809       746.7372384076 
   31000       184.9800018403      9774.8152316750         0.9090311349      -476.8617934678     -1028.8034322508       170.1024073400       193.3110506703        -7.0629196875      2158.7805484733     -3093.5556555584      -450.3788634884      -130.0700887889      2432.6759085864 
   32000       179.4032962044      9831.2366873554         0.9038142063      -503.9110890443     -1039.2130045219       138.9808664380       210.0849205654        -5.9052980927      2184.3354362103     -3093.5134052553      -473.1955243876      -367.9189624018       948.4833773096 
   33000       190.9824145318     10056.4474287339         0.8835735926      -454.0129135153     -1023.8644964255       160.6583452338       198.1933034292        -0.2750337789      2169.5847997587     -3093.4345188298      -458.5913922386      -307.8878693299       996.3322279166 
   34000       196.9347497076      9918.5129584814         0.8958612466      -406.3935426640      -994.0056488678       162.0171027432       214.9417971574        -1.2071141986      2177.1874194314     -3092.9227685830      -454.0220854182      -397.0277866029        64.7471098816 
   35000       196.2113321660     10130.0854392527         0.8771506851      -445.9208070759     -1031.3743866311       157.0980607718       191.3351607506         0.3918349926      2157.8531326915     -3092.9956534154      -445.0569224223      -406.1924647794       268.9127824424 
   36000       208.3684268055     10187.7970405307         0.8721818219      -351.7374872713      -973.4652946967       177.5177144499       215.7901586984        -3.6702654370      2181.9209098073     -3092.4129257098      -452.6108865054      -341.0776363492        71.7455480277 
   37000       207.5662331748     10348.9270408875         0.8586021863      -298.8673555761      -918.2015849781       189.6683119532       219.2410439896        -2.5629749373      2218.0362043058     -3092.9664289181      -449.6177413713      -549.7034224130     -1661.9531145491 
   38000       221.2718649446     10124.0640875881         0.8776723761      -249.2943329156      -909.5233011236       196.6671965492       226.5067964353         3.5659583490      2207.1993522261     -3093.3836332908      -450.0789713924      -286.0836838293      -249.1674745644 
   39000       217.5832928382     10174.6237451794         0.8733110537      -284.1570135816      -933.3800540519       189.9130876601       218.9782280370        -3.9426989692      2195.9292884926     -3092.7167884081      -441.5411708643      -468.8238609888     -1244.4993885651 
   40000       225.7283790504     10504.3343080690         0.8458995233      -172.3909929181      -845.9172671825       202.1066237447       260.6512680977         0.5237352187      2216.4134175912     -3092.5072465077      -433.1050653271        84.2228566173      1675.0804395265 
   41000       218.0092655661     10175.8987350929         0.8732016321      -252.1557370337      -902.6497910361       186.1605395462       233.9422072396         6.7108550717      2207.1796296602     -3093.3719758343      -443.2710467196        70.4136506712      2173.5742678108 
   42000       229.0790203387     10537.7487678016         0.8432172354      -184.6056773542      -868.1295644699       207.6257090810       228.7937061082         8.1633728090      2211.7550804949     -3093.1018896877      -431.3655432753       -48.5086121756       885.5743528411 
   43000       210.4904686135     10755.0888043510         0.8261774073      -207.7080629576      -835.7675993343       204.6767374462       253.6767984796         0.6598374680      2221.8732067212     -3093.2990996816      -423.3550797678        94.0273715377      1923.6959237667 
   44000       238.9352410811     10576.6900573532         0.8401126756      -141.2118175135      -854.1446059951       193.0768339846       246.7282623308         7.6065976899      2217.4819974864     -3092.9676932694      -426.0706042174       -87.2310420490       349.9560064631 
   45000       234.4510359955     10380.2685111228         0.8560097818      -113.4658906669      -813.0187489995       217.0937909557       267.4143952218         6.5593042957      2227.7536319115     -3092.9907642614      -438.8491071228      -664.5006571736     -3639.9425032957 
   46000       242.9096202302     10426.4215704825         0.8522206131      -104.5009272863      -829.2924319473       213.5233515176       266.8239578646         4.3636189508      2199.2761656376     -3093.2732060428      -420.0063198751        44.2281769167       978.1034529088 
   47000       242.7947122455     10389.1704170115         0.8552763144       -79.5181362472      -803.9667795138       215.6494193217       257.0508083366         2.1398889707      2261.4301601965     -3092.4489069760      -447.7881493633      -140.9483381237      -405.4386834299 
   48000       233.3302438487     10566.2792839412         0.8409404242       -60.4371591924      -756.6458081614       240.3505631559       274.3652887798        -4.0405361895      2249.0776778518     -3091.5553137207      -424.8434880386      -256.7677320162     -1274.0602280913 
   49000       253.4677044406     10512.3894124383         0.8452513539         0.2001335595      -756.0944862681       227.6915141083       274.1223046484        -1.8792530484      2263.5503395704     -3093.0770240744      -426.5023674724      -126.6172212509      -827.1825436331 
   50000       261.7681629404     10506.5996808858         0.8457171353       -17.1689065043      -798.2303585381       230.5833557489       260.4633839393        10.2947011333      2223.0978968570     -3092.3900677032      -430.2796285133      -203.6594265254     -1217.0787656101 
   51000       249.2538616923     10522.7716385653         0.8444173920        13.2663754000      -730.4550189498       255.2196585499       260.8578617475        10.4592835325      2264.8161781084     -3092.2580119929      -429.5499888952       134.6963414364       791.2611420841 
   52000       260.9368598750     10819.7789001557         0.8212377966        71.0187357965      -707.5622817485       249.8372669171       275.0545085908        11.4610973398      2255.3738452004     -3090.8240818441      -408.4649179525       519.9823820180      2845.2268662892 
   53000       271.4429958503     10618.1047045129         0.8368359167       139.6596204250      -670.2695096176       251.3404535468       296.5663386901         6.9695538786      2314.2992806370     -3091.5625013031      -447.8826350670       376.4972993197      1529.4240079576 
   54000       284.8421208965     10529.7596602274         0.8438569987       161.9909997165      -687.9183171717       238.2297970347       305.2415226119        12.0512135965      2271.7102179990     -3093.5743350657      -421.5767333481       219.9371145538       377.3375060786 
   55000       287.0831449261     10600.2757775522         0.8382434165       204.9376625526      -651.6584013522       244.6685742770       318.1654262738         9.3220685658      2298.4843552966     -3091.0420596341      -431.2567661314       -82.9765273243     -1862.3873633241 
   56000       282.5732308181     10764.9179069272         0.8254230511       187.4724636816      -655.6669597281       251.4355418406       299.4459338324        13.7047890287      2284.8252392452     -3093.3509727454      -411.7274909296        73.6911017200      -724.7438126049 
   57000       282.9480948670     11091.9657246088         0.8010853625       218.6959041769      -625.5620351557       265.1278853600       307.7578870674         5.2866604119      2298.3053740210     -3092.5542648202      -409.4855771959         8.5508626967     -1299.0765363113 
   58000       293.7038489727     11063.3972216425         0.8031539685       272.8307907861      -603.5200693402       262.0865609150       309.7596339354        12.9341900511      2301.5724073187     -3091.6719104558      -398.2009511047       503.6841226567      1430.7763471482 
   59000       289.4990680030     11328.4876136444         0.7843598975       296.0657605270      -567.7389125734       274.0132919418       344.7292775783        17.7713222096      2261.7760706861     -3091.7184851490      -374.3103898402       431.7262628227       821.1180466238 
   60000       314.5575480603     11138.9947065484         0.7977031696       336.6687799228      -601.9051569393       248.5094152912       329.9801063556         7.7925374776      2323.2721098791     -3093.0642461931      -418.3950797495       426.8409565198       555.0737197787 
Loop time of 62.2161 on 64 procs for 50000 steps with 1002 atoms

Performance: 69.435 ns/day, 0.346 hours/ns, 803.650 timesteps/s
99.4% CPU use with 64 MPI tasks x no OpenMP threads

MPI task timing breakdown:
Section |  min time  |  avg time  |  max time  |%varavg| %total
---------------------------------------------------------------
Pair    | 7.2682     | 10.674     | 14.572     |  62.8 | 17.16
Bond    | 0.2106     | 0.2589     | 0.29778    |   3.6 |  0.42
Kspace  | 7.622      | 11.529     | 15.247     |  61.0 | 18.53
Neigh   | 20.568     | 20.979     | 21.219     |   3.2 | 33.72
Comm    | 16.673     | 16.922     | 17.433     |   4.1 | 27.20
Output  | 0.027019   | 0.027083   | 0.027374   |   0.0 |  0.04
Modify  | 1.0707     | 1.1892     | 1.2861     |   4.9 |  1.91
Other   |            | 0.6378     |            |       |  1.03

Nlocal:    15.6562 ave 23 max 10 min
Histogram: 3 6 8 14 10 7 10 2 1 3
Nghost:    4748.02 ave 4891 max 4625 min
Histogram: 4 8 4 8 9 13 9 6 1 2
Neighs:    12081.4 ave 22052 max 6311 min
Histogram: 6 11 10 12 8 7 5 3 0 2

Total # of neighbors = 773211
Ave neighs/atom = 771.668
Ave special neighs/atom = 5
Neighbor list builds = 50000
Dangerous builds not checked
unfix anneal

# RUN EQUILIBRATION PHASE AT FINAL TEMP
fix anneal all npt temp ${FINAL_TEMP} ${FINAL_TEMP} 100.0 iso ${pressure} ${pressure} 1000.0 # NPT, nose-hoover 100 fs T relaxation
fix anneal all npt temp 298.0 ${FINAL_TEMP} 100.0 iso ${pressure} ${pressure} 1000.0 
fix anneal all npt temp 298.0 298.0 100.0 iso ${pressure} ${pressure} 1000.0 
fix anneal all npt temp 298.0 298.0 100.0 iso 1.0 ${pressure} 1000.0 
fix anneal all npt temp 298.0 298.0 100.0 iso 1.0 1.0 1000.0 
run ${nSteps_ramp}
run 50000
PPPM initialization ...
WARNING: Using 12-bit tables for long-range coulomb (../kspace.cpp:321)
  G vector (1/distance) = 0.186575
  grid = 8 8 8
  stencil order = 5
  estimated absolute RMS force accuracy = 0.00727265
  estimated relative force accuracy = 2.19014e-05
  using double precision FFTs
  3d grid and FFT values/proc = 343 8
Per MPI rank memory allocation (min/avg/max) = 10.43 | 10.54 | 10.55 Mbytes
Step Temp Volume Density TotEng PotEng E_bond E_angle E_dihed E_coul E_long E_vdwl Enthalpy Press 
   60000       314.5575480603     11138.9947065484         0.7977031696       336.6690502227      -601.9048866393       248.5094152912       329.9801063556         7.7925374776      2335.2901620763     -3105.0820280904      -418.3950797495       426.8438129226       555.0896390764 
   61000       285.3240440284     11194.5506080623         0.7937443578       252.9396868005      -598.4075879241       273.4109675434       326.1293874390         6.6757783422      2308.3899240164     -3104.3778029070      -408.6358423581       469.9302863727      1329.1021679648 
   62000       294.0903508585     10682.4416880390         0.8317959174       271.2129876683      -606.2911132523       268.6068879330       330.1739667525        11.7776776995      2278.7716766513     -3103.1911312314      -392.4301910571       105.6397340892     -1062.7809536301 
   63000       298.4599025624     11128.4701568279         0.7984575830       309.3687648324      -581.1731645248       258.4899351212       328.8149210898         8.2685826473      2317.2522996453     -3104.2620615385      -389.7368414899       463.2270461328       948.0025856847 
   64000       295.6328794639     11217.9436907293         0.7920891412       297.0995762755      -585.0071073993       257.1305043403       328.3937248887         6.6154238470      2329.9612273151     -3102.6446624771      -404.4633253134       564.1547269805      1632.3444747329 
   65000       306.9991687156     11345.1605012478         0.7832071995       348.6469274002      -567.3743862565       269.0323931641       315.5216011971        16.4962418532      2320.1124416920     -3101.9648904001      -386.5721737628       456.2554233141       650.3692922227 
   66000       301.7530679351     11491.8626145435         0.7732089811       345.6179175343      -554.7501285625       254.1049507974       337.2759523696         9.4829600876      2339.2630949238     -3103.7334395930      -391.1436471478       685.1383622711      2025.8142249482 
   67000       301.2918028082     11297.2819268746         0.7865264797       309.5128068746      -589.4789205523       259.8315320660       327.9029573619        10.5063517205      2282.6221922187     -3105.2389423606      -365.1030115587       784.6313507832      2883.7135962254 
   68000       298.6838975028     11276.0205498089         0.7880095060       330.3573301413      -560.8529532716       279.5294173247       316.1745572565        11.1030784786      2319.9656381874     -3102.4436987455      -385.1819457732       422.9869693724       563.2720795461 
   69000       299.0106130401     11351.7870893014         0.7827500035       274.0996364241      -618.0854978228       248.4800038701       329.7450613548        13.3683691477      2284.8877611312     -3104.6910295420      -389.8756637846       350.0329631391       458.6615144882 
   70000       295.3290195625     11011.2726900803         0.8069558927       299.5484460614      -581.6515832167       270.7741763698       324.9738688168        18.3562981418      2310.6570920022     -3104.4740417380      -401.9389768093       208.5045628783      -566.9403474982 
   71000       301.6473994598     11336.3454635114         0.7838162142       305.4822873591      -594.5704661069       256.7691555224       318.2170293762         9.6182212855      2318.7652166762     -3104.5582677226      -393.3818212444       108.9730554031     -1188.5952674482 
   72000       294.5870138284     11514.4391673789         0.7716929374       344.4206277835      -534.5654115670       271.8230534611       310.9927940775         6.9915936745      2387.1798709788     -3102.8253315824      -408.7273921766       330.0713326968       -85.4499647057 
   73000       302.7333079420     11148.7544474684         0.7970048516       370.7867869432      -532.5060903268       300.4321002387       316.8262138349        13.2746045604      2358.1340514961     -3103.9930323204      -417.1800281366       716.9778176753      2129.1858544705 
   74000       294.6310275103     11149.5127157149         0.7969506480       328.4063506875      -550.7110162848       271.6870233705       324.6943156016        11.2753882892      2359.8722884498     -3104.0561398930      -414.1838921029        28.7301687505     -1842.9792702693 
   75000       303.0624041092     11467.4731818371         0.7748534697       362.5961644148      -541.6786669910       267.7816270428       349.4612138088         7.0111281261      2325.5065774933     -3103.1476586368      -388.2915548252       777.1774080933      2478.9400696211 
   76000       300.7493204161     11050.8638782442         0.8040648660       306.3161869916      -591.0568864322       257.7503464672       317.7120459410        16.1705504373      2324.6568426712     -3104.1969990265      -403.1496729225       356.3068804599       310.1823218199 
   77000       291.4163964369     11446.3899923203         0.7762806780       270.1095531461      -599.4160270109       269.0219435525       305.9234538115         9.6038518155      2303.2732573261     -3104.6006893937      -382.6378441227       788.3036769874      3104.1882862586 
   78000       307.7520369298     11276.1255184957         0.7880021705       371.3821449508      -546.8855700021       279.1952029292       327.3782615639        10.6255634633      2314.2799183878     -3102.5267326653      -375.8377836810       466.4730855647       578.2336377917 
   79000       296.8305750897     11078.1358140885         0.8020854350       297.8677264980      -587.8126304381       268.5514851815       303.5686866645        12.7857633978      2353.5005768103     -3104.9770113898      -421.2421311024       138.6837975298      -985.2731439651 
   80000       283.6680914036     11242.3721650910         0.7903680160       270.5187452871      -575.8875131307       273.1155902912       316.7700210973         1.0322912344      2351.3015078791     -3103.5288211016      -414.5781025310       494.0446621278      1363.3081705637 
   81000       299.3823642545     10798.5147050928         0.8228549598       284.4016589635      -608.8927031593       257.6436204903       302.3199018520        14.3218916305      2350.5396644553     -3104.2029605986      -429.5148209887       809.0221687252      3331.2356201996 
   82000       302.6674113346     11376.3709772889         0.7810585117       355.0105324073      -548.0857231679       266.8204380091       316.3687561651        18.1383814298      2353.5387932792     -3103.0446505690      -399.9074414820       474.0373424691       717.4062558908 
   83000       296.6996559156     11003.9110738784         0.8074957462       307.4690814735      -577.8206400274       275.3222979505       321.5293975388        15.7825451991      2332.3900737313     -3104.9963988984      -417.8485555487       101.4481728094     -1283.7732937961 
   84000       287.5486236552     11241.1575743158         0.7904534141       248.4717274018      -609.5132276804       261.0075810393       295.2625333500         4.3840202386      2306.7473445579     -3104.6740266006      -372.2406802657        91.2237170890      -959.1758462395 
   85000       293.3434473543     11227.5499138591         0.7914114345       321.0548289285      -554.2206681427       271.9416264083       326.9290428849        13.4469885124      2339.4909917032     -3102.8040507245      -403.2252669269       189.2479540714      -804.9653365514 
   86000       302.6495380188     11205.5504710854         0.7929651833       352.0759667103      -550.9669586285       261.2473730045       319.3355957688         9.8118734017      2354.4246993866     -3104.7833032362      -391.0031969540       442.0337922958       550.4651942942 
   87000       301.3638858233     11342.1919650384         0.7834121844       339.0852463003      -560.1215617685       265.7022138928       321.0789445924        -0.6468131904      2332.6086407754     -3104.1739007129      -374.6906471258       470.8143865317       796.3591502264 
   88000       291.9253659075     11837.0058180850         0.7506637675       340.9967892348      -530.0474493767       257.9123001475       326.9037531728        11.4855445735      2366.2323270557     -3104.8151405344      -387.7662337919       443.5244870736       593.9138530846 
   89000       289.9524253290     11496.1246883041         0.7729223216       331.2096756111      -533.9477209350       261.6156636643       314.6502449613         3.1561097827      2369.6350091694     -3104.7299757701      -378.2747727425       992.1787356860      3942.3372694877 
   90000       303.0762427444     11197.4584199756         0.7935382343       293.8449089848      -610.4712140142       236.2813535473       309.5601886617        10.5477317342      2339.1409230065     -3104.9144511133      -401.0869598506       198.3380678086      -584.8427808787 
   91000       289.1087123099     11587.1646432288         0.7668494975       342.6313802504      -520.0085531007       266.4729087423       332.9065231748        18.6907925270      2346.3355734377     -3103.5376234884      -380.8767274940       341.8836825213        -4.4245896009 
   92000       301.1562849351     11166.0500613345         0.7957703337       255.8245667789      -642.7628036571       244.7629329526       295.3210956436        10.5519194515      2321.3516028223     -3104.5538465364      -410.1965079907       342.2330823315       530.6169076266 
   93000       308.6888521536     11469.0857182564         0.7747445264       337.9426501678      -583.1203254873       253.1611120500       327.0824479315        10.6346954671      2332.4825845443     -3104.9764934819      -401.5046719984       183.5614757452      -922.9743936041 
   94000       282.3969439318     11502.2835297091         0.7725084641       287.1247513964      -555.4886688135       255.8531156381       332.8323614536        14.7222026870      2327.4280993912     -3104.5862060858      -381.7382418975       505.0009841401      1298.8227865207 
   95000       303.4475328718     11588.3929602319         0.7667682149       317.2440862945      -588.1798887933       247.6674975344       321.7364777041        10.1053336289      2331.9827124541     -3103.2473639969      -396.4245461179      -261.2255012131     -3422.7992506996 
   96000       295.3973789553     11289.4513961768         0.7870720261       272.0467115205      -609.3572878891       243.4007071035       320.1483491904         1.3834198211      2325.9864238142     -3103.8196091413      -396.4565786771       240.1451724014      -193.7594570979 
   97000       301.9295024532     11474.1462614676         0.7744028341       328.4118653805      -572.4826244188       253.6718639910       322.5347292854        18.8496117379      2329.0023230223     -3103.5414687164      -392.9996837390       405.5040031849       460.6953386991 
   98000       292.8470342249     11383.6736108664         0.7805574621       299.9497475220      -573.8445565910       258.6847625565       326.6420677854        17.9267290093      2332.8039856437     -3103.5910854110      -406.3110161748       480.5567201023      1087.8679652194 
   99000       290.3051005606     11382.6433871725         0.7806281091       306.9467321109      -559.2629735676       272.3222487769       318.0873281192        13.0358651271      2329.6627866189     -3103.8991240935      -388.4720781162       199.3546698389      -648.1286398632 
  100000       317.4048495604     11951.6050764519         0.7434659468       422.3883296190      -524.6813594348       248.6234337181       332.9953905272        10.2887725901      2367.0024884065     -3102.8900738022      -380.7013708745       445.9223119449       135.0185064183 
  101000       303.8634840772     11314.4606925015         0.7853322951       377.3581159928      -529.3069704998       256.0605064742       323.4555523682        15.8490171554      2356.8864883641     -3103.7130606024      -377.8454742593       504.6408436266       771.3646392808 
  102000       303.4699512969     11213.7959512862         0.7923821177       312.7863918726      -592.7044751069       238.1836524069       326.1314271173         8.2919033916      2351.1626450981     -3103.1504056450      -413.3236974758       880.3609015170      3470.5183409599 
  103000       305.7623339622     11314.4521864787         0.7853328855       331.8158292985      -580.5150281256       263.1194173037       301.6353559814         8.3590983530      2353.4659174325     -3103.7487435736      -403.3460736227       606.9619235833      1667.4542671275 
  104000       303.4483614184     11806.6184983122         0.7525957906       357.3884822444      -548.0379650531       262.8358316571       306.7255896350        11.7447902854      2365.5896527989     -3102.4570764187      -392.4767530107       144.4875364719     -1236.4488956518 
  105000       310.6437706348     11441.7159383622         0.7765977963       370.4461254487      -556.4499181028       266.6836922439       310.6837816719        11.4259169715      2357.1961875302     -3102.5023429205      -399.9371535997       490.5037760128       719.4867318986 
  106000       298.8081063808     11346.9882434788         0.7830810426       315.1552333608      -576.4256633671       253.2119967381       313.7965432903        11.6304984625      2338.4281459063     -3104.0603657083      -389.4324820560       171.6386135973      -867.2527839266 
  107000       302.4003871381     11625.6208536085         0.7643128479       369.9120633567      -532.3874478615       263.6681105016       302.4866381146        11.1299811762      2390.9946070656     -3102.9779218466      -397.6888628729        -6.4669796412     -2219.8998868583 
  108000       305.2536126571     11369.8038406806         0.7815096468       351.2786986849      -559.5342407587       267.2792768804       305.0908691838        14.0104432073      2361.3928621223     -3104.5335994226      -402.7740927300       666.1878426054      1899.1375023005 
  109000       301.2047990129     11362.1291511730         0.7820375271       359.1059830057      -539.6261432921       270.4504284977       302.5908088236         9.9329765129      2357.4864303855     -3104.1865404042      -375.9002471076       912.2530058424      3338.1432399903 
  110000       308.8851496439     11388.3482847264         0.7802370600       380.3525756192      -541.2961106936       272.2002643998       320.8162989860         6.9502843649      2347.3264496823     -3104.7150461988      -383.8743619278       488.7584438327       652.7038315175 
Loop time of 57.6802 on 64 procs for 50000 steps with 1002 atoms

Performance: 74.896 ns/day, 0.320 hours/ns, 866.848 timesteps/s
99.3% CPU use with 64 MPI tasks x no OpenMP threads

MPI task timing breakdown:
Section |  min time  |  avg time  |  max time  |%varavg| %total
---------------------------------------------------------------
Pair    | 6.4716     | 9.6733     | 13.272     |  62.4 | 16.77
Bond    | 0.23496    | 0.25925    | 0.2826     |   1.8 |  0.45
Kspace  | 7.6936     | 11.303     | 14.656     |  58.0 | 19.60
Neigh   | 19.173     | 19.569     | 19.765     |   3.4 | 33.93
Comm    | 14.917     | 15.181     | 15.702     |   4.7 | 26.32
Output  | 0.026237   | 0.026291   | 0.026574   |   0.0 |  0.05
Modify  | 1.0543     | 1.202      | 1.3343     |   6.8 |  2.08
Other   |            | 0.4663     |            |       |  0.81

Nlocal:    15.6562 ave 23 max 8 min
Histogram: 3 1 7 2 19 6 16 3 4 3
Nghost:    4652.83 ave 4727 max 4583 min
Histogram: 3 4 10 13 7 6 8 4 3 6
Neighs:    11806.3 ave 19436 max 5670 min
Histogram: 4 8 8 7 8 12 7 4 4 2

Total # of neighbors = 755602
Ave neighs/atom = 754.094
Ave special neighs/atom = 5
Neighbor list builds = 50000
Dangerous builds not checked
unfix anneal
undump anneal

# RETURN TO LESS FREQUENT NEIGHBOR BUILDS
neigh_modify every 1 delay 10 check yes one 10000 # More relaxed rebuild criteria can be used

#===========================================================
# RUN EQUILIBRIUM SIM
#===========================================================

# UPDATE RUN PARAMETERS AND CREATE FIX
fix equil all npt temp ${FINAL_TEMP} ${FINAL_TEMP} 100.0 iso ${pressure} ${pressure} 1000.0 # NPT, nose-hoover 100 fs T relaxation
fix equil all npt temp 298.0 ${FINAL_TEMP} 100.0 iso ${pressure} ${pressure} 1000.0 
fix equil all npt temp 298.0 298.0 100.0 iso ${pressure} ${pressure} 1000.0 
fix equil all npt temp 298.0 298.0 100.0 iso 1.0 ${pressure} 1000.0 
fix equil all npt temp 298.0 298.0 100.0 iso 1.0 1.0 1000.0 

# CREATE COORDINATE DUMPS FOR EQUILIBRIUM
dump equil all custom ${coords_freq} equil.lammpstrj id type x y z mol
dump equil all custom 1000 equil.lammpstrj id type x y z mol
dump_modify equil sort id format float %20.10g

# RUN EQUIL
run		${nSteps_equil}
run		100000
PPPM initialization ...
WARNING: Using 12-bit tables for long-range coulomb (../kspace.cpp:321)
  G vector (1/distance) = 0.186122
  grid = 8 8 8
  stencil order = 5
  estimated absolute RMS force accuracy = 0.0074343
  estimated relative force accuracy = 2.23882e-05
  using double precision FFTs
  3d grid and FFT values/proc = 343 8
Per MPI rank memory allocation (min/avg/max) = 11.03 | 11.04 | 11.05 Mbytes
Step Temp Volume Density TotEng PotEng E_bond E_angle E_dihed E_coul E_long E_vdwl Enthalpy Press 
  110000       308.8851496439     11388.3482847264         0.7802370600       380.3542342528      -541.2944520600       272.2002643998       320.8162989860         6.9502843649      2339.8252969864     -3097.2122348692      -383.8743619278       488.7677845400       652.7500847237 
  111000       276.7206886855     11593.0818295702         0.7664580924       273.6200692932      -552.0565923935       255.3304730418       313.9435470896         6.2724685978      2345.1880137502     -3095.0239116196      -377.7671832532       -39.4689124666     -1851.7953680332 
  112000       299.2710313865     11763.7583812224         0.7553378007       352.2562693022      -540.7058988266       269.3717408208       311.3687611987         5.2263361468      2357.0070262301     -3097.1209115586      -386.5588516643      -284.4838346533     -3711.4209830130 
  113000       304.1806648126     11785.7279335818         0.7539297898       381.3229555365      -526.2885319352       285.4910244588       314.5771527065        13.8699977055      2325.9726590868     -3095.1184249345      -371.0809409583       564.2176785937      1064.0667545156 
  114000       286.7292728362     11691.0663369384         0.7600342969       299.7373090592      -555.8028745382       262.8410024337       318.0091303969        16.6922200833      2336.3858544830     -3097.0584001767      -392.6726817583       242.6844006261      -334.6168253306 
  115000       297.3077825441     11435.8113433589         0.7769987731       368.9076919743      -518.1965522026       274.2564384991       324.2664984661        13.6824325386      2363.0893170770     -3096.4425670588      -397.0486717246      -187.5122747444     -3336.2595837512 
  116000       292.2144320706     11461.2888492764         0.7752715685       281.5930585330      -590.3136930541       249.7832007964       312.8692726454        12.3972580476      2322.0533115782     -3097.0245315243      -390.3922045973       597.1103356571      1887.6166443430 
  117000       299.6747009074     11939.1508216571         0.7442414889       332.4203436564      -561.7462898994       241.7474481620       317.8782190830        14.3254722301      2338.4137722347     -3095.0139802191      -379.0972213901       489.0324868560       899.4480921937 
  118000       302.0742323464     11594.8428840056         0.7663416807       336.3625304890      -564.9638030428       249.4429356379       307.0553888251        17.1210326237      2360.7773213526     -3095.3748938715      -403.9855876106       253.6006562087      -489.4288433747 
  119000       301.9336144905     11543.1522833465         0.7697733830       352.7699820898      -548.1367771689       273.0232313324       318.6424796894        13.8509572641      2344.9970854506     -3096.4285534640      -402.2219774414      -201.6729462009     -3293.4914023182 
  120000       297.9955048472     11456.2034054338         0.7756157140       307.4929208923      -581.6633428068       253.6200204652       310.7865515289        12.7413956936      2336.8723115846     -3095.6789260855      -400.0046959935        75.0041158539     -1391.5071426862 
  121000       294.4055320554     11747.5046253333         0.7563828802       325.3221676766      -553.1223680183       254.0305144384       342.9624163620        12.3139303437      2290.0240389636     -3095.8132210046      -356.6400471214       558.1436530027      1358.9439405136 
  122000       285.9300541632     10773.4594386949         0.8247686302       259.5519194100      -593.6035628159       249.6264396977       324.1999095073        15.3216679788      2337.0942643071     -3095.4863871483      -424.3594571585       259.9324278943         2.4217721160 
  123000       312.9190457950     11705.7277869796         0.7590823523       356.9402556488      -576.7447331300       252.7880912434       318.0297103517        15.7210456985      2324.9402504012     -3096.2370117645      -391.9868190604       490.5157303461       782.4424717152 
  124000       292.1181027244     11575.3272515617         0.7676337084       312.7939763626      -558.8253486017       274.0947268995       308.8205068370        11.4984526076      2321.9065493708     -3096.0805165137      -379.0650678030       276.1721164945      -216.9358006844 
  125000       299.5443029822     11558.4632986375         0.7687536962       340.4577794901      -553.3197739283       266.9553814406       315.2071416992        22.3463174225      2320.8567135727     -3097.0851143778      -381.6002136855      -292.1230258310     -3752.6669471199 
  126000       299.9111874837     11640.2036561679         0.7633553197       336.1505092644      -558.7217507764       267.0372656185       290.4114321154        10.0397448525      2365.5497126535     -3095.9295357828      -395.8303702335       473.0573749614       806.4710086481 
  127000       290.9828971383     11485.1334379083         0.7736620068       296.7580542607      -571.4740546514       260.6187953525       308.9628286767        11.4511162308      2347.9555903521     -3096.0214930158      -404.4408922476        47.3236479156     -1489.1704987162 
  128000       300.6423167529     11323.9596233393         0.7846735311       293.4813522671      -603.5724446045       263.6647396588       303.3168986232        11.3040769257      2299.5873634373     -3097.1306724686      -384.3148507809       645.8869083679      2133.8728874675 
  129000       305.4468228967     11329.4439332291         0.7842936896       332.7251578243      -578.6642805661       251.5015014881       296.6167933452        13.3060563630      2332.7827621134     -3096.9489300260      -375.9224638498       256.0483611668      -464.0657074670 
  130000       295.1705065001     11347.1221263945         0.7830718031       312.2808508697      -568.4462085818       251.8521804021       317.2559961119         7.7580770075      2345.4953123419     -3097.0372165092      -393.7705579359       313.8182161106         9.2899941209 
  131000       293.0706157259     11577.8130730235         0.7674688931       324.6591012263      -549.8023233259       258.2506354210       306.7235417092        14.2282633482      2360.3687652554     -3096.1109924945      -393.2625365652       188.8161481321      -804.5160103933 
  132000       306.1811234001     11715.7207650795         0.7584348895       378.3310645132      -535.2493730080       257.4191706937       337.8691163831         9.9316976442      2343.5011685859     -3096.2315910499      -387.7389352651       544.8617388875       974.6514635929 
  133000       300.6215093349     11396.7719126944         0.7796603680       337.9362350677      -559.0554768203       260.2332002448       338.2838151528         8.3265485279      2290.6499549112     -3096.7812359916      -359.7677596654       205.8830466261      -794.4949584410 
  134000       295.0759803130     11529.9265865388         0.7706563712       326.0774129663      -554.3676001119       270.0804437066       319.3094353786         9.1261173943      2336.1822028400     -3096.7006104872      -392.3651889443      -193.0633318613     -3087.3273795435 
  135000       302.1703096334     11343.1663275525         0.7833448904       284.3208517011      -617.2921563615       272.3069425421       297.2696722278        -2.4662098993      2304.7072244868     -3097.0363643180      -392.0734214009       320.0991382999       216.2765080451 
  136000       308.1681354695     11442.4323665957         0.7765491723       349.1279228443      -570.3813431282       270.5349407534       299.8027477459         9.2174808469      2352.6714596520     -3096.6008170127      -406.0071551137       171.0568047044     -1067.0855581173 
  137000       313.8292961834     11419.0254118358         0.7781409589       404.0499515193      -532.3510340487       263.3667557858       324.2883644281        16.4619137470      2356.4853463355     -3094.8856165455      -398.0677977996       483.0766433408       474.5356810644 
  138000       301.8660458881     11356.8658417589         0.7823999603       338.4660753700      -562.2390733103       270.9880231159       293.6987493329         6.2713459585      2367.9341792683     -3096.4622696317      -404.6691013542        50.6330450998     -1737.8258179036 
  139000       330.3327015044     11372.5462963647         0.7813211881       465.0610114188      -520.5826841057       281.1867219294       323.4624769678         7.2980539660      2358.4498537520     -3096.1655701797      -394.8142205411       338.7736458156      -761.4235430027 
  140000       292.0990149772     11316.5334928624         0.7851884492       320.7127859326      -550.8495851860       270.8028078873       324.8815112015        12.8874391010      2312.7997960849     -3095.5335055413      -376.6876339193       153.5710197530     -1012.7346854465 
  141000       290.9414697860     11474.7084969282         0.7743648901       329.5990408507      -538.5094575064       266.7154257248       311.1687073451         9.9587110627      2378.8906649406     -3095.8173812601      -409.4255853195       453.9223025502       742.9076742689 
  142000       306.2739438504     11500.7491045246         0.7726115319       381.3651212244      -532.4922731079       289.5587109258       314.7012282488         6.3461195269      2324.3074357956     -3095.5137336143      -371.8920339907       618.5372705799      1414.0399217169 
  143000       290.4714340451     11381.2809002454         0.7807215604       301.3497430926      -565.3562669168       262.0338059973       328.2059665143        12.1304072225      2326.0422034659     -3094.3770362098      -399.3916139070       -12.5063110194     -1890.8778684264 
  144000       293.1038351109     11566.6113297727         0.7682121522       322.8449844829      -551.7155597665       275.8796520107       328.8591080754         4.9145974436      2331.3532920879     -3096.8639930670      -395.8582163171       702.0642011973      2248.0621062034 
  145000       296.0478330519     11521.8746571151         0.7711949355       318.1087182921      -565.2361001057       265.1893485522       320.1171389284        15.3831831769      2290.2208540867     -3094.1033465790      -362.0432782708       268.9090681698      -292.7945432352 
  146000       299.6812426127     11431.8459893257         0.7772682900       341.7743113487      -552.4118412874       255.1413575057       316.2750850024        15.9918582563      2361.4354154291     -3096.4844023505      -404.7711551303       357.5148332288        94.4119294123 
  147000       286.7377789108     11147.0969879642         0.7971233581       303.9589925787      -551.6065713663       281.8119666987       323.5858943171         9.2248759899      2311.4319777779     -3095.6512970650      -382.0099890849       793.0132098569      3008.2874997888 
  148000       298.9441928513     11393.7232653605         0.7798689837       275.5374290184      -616.4495212763       254.6368895134       301.2770457592        10.0858714451      2298.1971731853     -3096.8785443556      -383.7679568236       322.6391700681       283.4623636456 
  149000       289.0211626504     11242.5778214500         0.7903535581       297.3360453642      -565.0426581132       284.1719536309       323.3466528535        11.9734103298      2306.8713869374     -3097.5213834019      -393.8846784629       288.9216304674       -51.3194662102 
  150000       291.9541277798     11450.1200036815         0.7760277954       307.9721988179      -563.1578592052       274.8352930560       305.7692557573        12.3375818542      2339.9261682302     -3096.6225549010      -399.4036032020       528.4633181075      1320.3989623165 
  151000       306.8030272922     11282.6411433367         0.7875471063       342.5316996631      -572.9043690070       276.0812683341       299.7040186561        18.5576846274      2306.4447273781     -3096.3078328833      -377.3842351195       598.8462045687      1557.7096815904 
  152000       298.6422039188     11541.4725293284         0.7698854164       355.4800964725      -535.6057820056       281.5291299409       314.3756123113         8.6197300741      2341.7025774684     -3097.2709801897      -384.5618516106       681.5467219202      1937.1767020660 
  153000       297.2364266442     11542.0386144135         0.7698476569       311.9011398023      -574.9901932924       255.3415491692       308.7244282631         9.9075512727      2328.2096055552     -3096.7008384782      -380.4724890744       393.4189543411       484.2773035090 
  154000       311.7675473949     11251.9350749195         0.7896962900       359.9957704518      -570.2533879254       267.3635349916       302.7144358675        18.3215062540      2338.8478203538     -3096.4964805794      -401.0042048128       291.7726284020      -415.7465080916 
  155000       290.1052504747     11415.8820754330         0.7783552182       298.2615598889      -567.3518349300       269.2723140287       315.3750911089         5.7788198852      2337.1794469894     -3096.5650044917      -398.3925024504      -212.7080046507     -3069.0903184012 
  156000       297.4845287100     11484.3786814987         0.7737128520       325.9569925729      -561.6746251982       249.4483046372       325.4797943262        16.4753096928      2370.9871202831     -3097.2708028768      -426.7943512607        16.9630887945     -1844.8731807215 
  157000       299.0982169282     11454.5115590679         0.7757302734       293.9998473501      -598.4466785775       258.9257895807       289.3452758613        15.7463841665      2327.1065472055     -3096.5173226933      -393.0533526982       474.4352186172      1080.1130501218 
  158000       308.8394857004     11906.3100050417         0.7462943078       447.8208888495      -473.6915458058       285.1275132605       343.5505264720        13.6397467554      2340.5979315399     -3096.1600240208      -360.4472398129       345.6031578986      -588.6717037634 
  159000       299.6911204926     11325.0424532708         0.7845985055       313.3284688207      -580.8871573431       254.9248138264       316.5819623820         8.9743294531      2354.2826079753     -3094.9903623518      -420.6605086281       116.2405898649     -1193.2850169409 
  160000       301.7558093426     11206.5143684768         0.7928969786       339.2037053454      -561.1725205381       277.6269933109       315.7307416413        19.1022342233      2328.9284043873     -3096.3649503495      -406.1959437513       216.5542196435      -750.4457281384 
  161000       290.2259278983     11225.3389020485         0.7915673158       237.1762257619      -628.7972452505       253.0876366382       298.4190133185         0.2803477188      2318.9879052979     -3095.2489617933      -404.3231864306       426.3977878504      1155.8334861379 
  162000       293.7130242177     11582.2379451057         0.7671756897       287.2079100860      -589.1703270524       264.5059770090       291.3483382156        10.4284664114      2323.3893604796     -3096.1435486548      -382.6989205132       422.2056013431       799.2045891325 
  163000       287.0375850210     11253.4610918428         0.7895892038       242.6701441408      -613.7899785356       245.4304208631       304.3774052469        14.2769776713      2330.3214259471     -3095.3157123316      -412.8804959325        58.3972609116     -1122.7923060635 
  164000       298.2300977652     11593.2303607561         0.7664482726       291.6347073971      -598.2215325066       256.4356934355       279.4674093534        15.6783477986      2350.7054069066     -3095.9897319738      -404.5186580269      -296.0409969221     -3475.8208303685 
  165000       277.0545129165     11224.5493779877         0.7916229939       277.3790679199      -549.2936554559       252.9894261945       330.1394918019        13.4702269568      2351.5818406135     -3095.2561203142      -402.2185207083       417.5760891135       856.4341611628 
  166000       300.2452758673     11709.6020502474         0.7588312007       373.8044223315      -522.0646875746       268.9486805201       330.5972466416        16.2580918604      2353.4989838376     -3096.5900509789      -394.7776394555       651.4709271255      1625.9435675626 
  167000       291.2321720517     11539.2196365265         0.7700357272       295.4349907027      -573.5409024176       250.5992614433       309.2738903958         6.5047228933      2361.5144904469     -3096.3524510762      -405.0808165208       350.6191846919       327.9158239534 
  168000       298.9592687382     11402.2686359773         0.7792845150       287.5666999095      -604.4652336787       253.2852246147       295.2260595610        16.0735411815      2346.8227527277     -3095.1920861517      -420.6807256117       129.6911976020      -949.3964145342 
  169000       302.3581372740     11652.4764136705         0.7625513297       351.0264067315      -551.1470397286       264.5205322441       323.6256196372        12.4907557607      2324.9312345881     -3095.0327604545      -381.6824215043       240.9677081352      -647.6349105377 
  170000       302.0036111157     11416.7528935013         0.7782958488       315.1505044920      -585.9651100572       264.5759519285       307.2983448512        11.6101451242      2320.8628239042     -3094.3632105254      -395.9491653399       482.6915733389      1006.2428122425 
  171000       300.0598577791     11139.8234075836         0.7976438278       325.8948426553      -569.4210184539       272.8126161517       299.0367970970         6.6035964229      2357.0482358426     -3096.5645553045      -408.3577086636       742.7423666190      2565.8013569053 
  172000       295.8694120950     11333.1138833228         0.7840397154       331.3260030311      -551.4864445464       251.4184053909       326.9138119721        16.5597970124      2360.5323713310     -3096.1457766941      -410.7650535588       -30.4520966284     -2188.8556958615 
  173000       291.3987559124     11079.4855737520         0.8019877209       314.8480225498      -554.6249219716       282.4213792357       303.9954615419        12.5823717856      2343.4336140544     -3096.5474420939      -400.5103064952       142.7505259020     -1065.0722447402 
  174000       301.8928245780     11339.4533512068         0.7836013879       324.1540289772      -576.6310217133       265.6416815367       321.9767037669         5.0260070299      2321.7722554427     -3097.0397079644      -394.0079615250       233.9944614919      -545.1848910241 
  175000       307.7986152488     10808.7671184448         0.8220744592       371.7362765227      -546.6704183928       271.2023274524       321.2619717371        14.1265719101      2346.2913653310     -3096.5471167899      -403.0055380335        -1.2929420466     -2366.4144102373 
  176000       306.6522644219     11333.0313847991         0.7840454228       326.1714130889      -588.8148107067       254.8341787594       328.9166907544        13.6035227238      2328.8333818360     -3096.7455752996      -418.2570094807       193.8991846123      -800.2887089257 
  177000       276.8415463492     11051.7279096785         0.8040020037       224.2812754056      -601.7560002731       258.5426486885       316.6874957477        17.0843939141      2304.0325666182     -3097.3431940266      -400.7599112151       497.0586189124      1692.3969034554 
  178000       298.7283559871     11217.6193258004         0.7921120449       317.6689993585      -573.6739388736       257.7239924677       323.2808126808        14.0977715113      2338.7919541516     -3095.4740158476      -412.0944538373       584.0193580029      1628.0835885495 
  179000       287.7674444098     11744.0222446915         0.7566071656       308.0324123535      -550.6054580965       267.9103891138       338.7654398746        16.1661426249      2296.0410498767     -3096.8112631237      -372.6772164628       189.6678326928      -691.0810836674 
  180000       298.7100550689     11328.8281425999         0.7843363207       338.2710046305      -553.0173274890       272.7497740919       324.9376324250         4.3221294099      2337.4149641045     -3097.1505834806      -395.2912440396       239.0336251591      -600.6402192229 
  181000       294.3134822679     11419.3119408365         0.7781214341       335.3713757990      -542.7985025815       273.8156853427       321.4573358486         9.0962052037      2353.7237452817     -3095.5578114184      -405.3336628398       292.8310993372      -255.4373981343 
  182000       294.3160658075     11360.3009196333         0.7821633816       342.8551837934      -535.3224033288       265.0589560595       341.8983442948         7.3552143375      2326.3851767698     -3096.4488194643      -379.5712753261       229.1469812146      -686.3190753908 
  183000       296.7898574433     11425.4596057908         0.7777027525       372.8668760660      -512.6919879287       276.7893923564       325.3173565911        11.9879405811      2329.7299553147     -3096.3502309934      -360.1664017785       856.2973550129      2901.2453632306 
  184000       298.3781855442     11279.2139305462         0.7877864041       310.4825034361      -579.8155994292       269.6350273011       322.3124164232        17.3973765457      2283.7247486272     -3097.1047179327      -375.7804503936       496.6254863578      1131.5974128082 
  185000       300.0574613030     11508.4604995538         0.7720938334       292.0447498995      -603.2639606261       243.8917671561       291.0868413110        16.2664291974      2313.2094278465     -3096.5636105613      -371.1548155759       290.5356313085        -8.9914606595 
  186000       306.4811558523     11762.1181235952         0.7554431345       332.0678780965      -582.4077935131       266.0667586219       304.4217282133         3.8907099363      2334.5626132885     -3093.7184209698      -397.6311826034       371.7966883137       231.6029747200 
  187000       297.3184117729     11312.7316241631         0.7854523274       286.2171712812      -600.9187882914       265.6032891577       305.3584093886        13.6899119022      2294.3680054311     -3095.7445042472      -384.1938999238       539.9615422604      1537.9883401506 
  188000       308.1889597098     11353.6856999742         0.7826191088       325.0214990329      -594.5499021173       268.9498214826       321.4337185692        14.7632364162      2301.9263874969     -3096.2240609932      -405.3990050891        39.9588434295     -1721.5814306417 
  189000       293.5780934567     11353.0413274125         0.7826635284       289.2334346696      -586.7421972973       246.1001282277       311.5704619798        12.1781906631      2313.9391665683     -3096.7095909103      -373.8205538258       536.3947763343      1492.7684096683 
  190000       300.7705076820     11217.2306046324         0.7921394947       311.3593261711      -586.0769656229       260.3093772012       346.3134750082        10.7038492613      2284.2194654661     -3095.4587817806      -392.1643507791       400.7341794245       546.3284338573 
  191000       298.5907856073     11420.8845342572         0.7780142910       327.6346482393      -563.2978087509       286.2104162899       316.7085558344        10.8757617942      2320.3450777105     -3096.5276751159      -400.9099452640       361.6331094720       204.1190935932 
  192000       314.7573334627     11652.9781015469         0.7625185001       368.8850574308      -570.2849972888       259.0945880372       322.3933379514         8.4279133537      2332.2352165112     -3095.8554441012      -396.5806090411       312.3601737959      -332.6035323444 
  193000       309.1567183273     11160.2738234653         0.7961822016       338.1587910340      -584.3001994342       271.7793046444       309.3410088475         9.2970721600      2323.5572026294     -3096.4571295343      -401.8176581813       393.4575607852       339.7541183372 
  194000       298.8041640303     11271.7085182775         0.7883109618       330.8792880144      -560.6898455641       269.7950585844       331.1738036707         5.7883706972      2313.5265564804     -3095.2651113102      -385.7085236866       283.8223055594      -286.2585291655 
  195000       295.1508424359     11456.8951900381         0.7755688811       338.4022409853      -542.2661450110       269.5736012521       316.0337316938        12.0186387681      2363.5774237758     -3096.6492711052      -406.8202693956       559.4501056501      1322.9501944274 
  196000       303.2102280333     10928.0067938409         0.8131044893       331.6044923932      -573.1114146863       248.0761947784       317.6924346079        14.5350646912      2353.4844754036     -3095.6072979925      -411.2922861749       984.5853285613      4097.1662816545 
  197000       290.4350948671     11394.6071045138         0.7798084920       317.3101820772      -549.2873994250       262.8993009334       327.0399322407        13.1473876129      2330.5471633982     -3095.7005231430      -387.2206604672       184.9900972499      -796.2519818414 
  198000       312.0442073172     11274.3158205516         0.7881286568       401.7711658125      -529.3034879121       281.2208183137       331.5443786487        19.2702881386      2325.4203671242     -3095.5796801161      -391.1796600211       209.0661129027     -1171.9983944773 
  199000       309.2652416843     11276.2351685017         0.7879945080       381.1736437568      -541.6091577120       284.3935621378       316.2899994824         8.3964854807      2321.8835288565     -3096.3811254378      -376.1916082316       556.4866374384      1066.0414514267 
  200000       299.1956231455     11288.3120606653         0.7871514657       341.8972195694      -550.8399461392       277.8154051078       321.5160861741         8.9718156998      2344.7505480123     -3097.6091642688      -406.2846368644       639.6748698124      1808.7860602946 
  201000       301.1350393094     11549.8549154222         0.7693266668       343.5086435959      -555.0153343362       274.0226057845       296.6720439441        11.1789867657      2373.6139785169     -3096.7931514481      -413.7097978993       233.4181537752      -653.5779409226 
  202000       294.0255142312     11502.1363541406         0.7725183488       272.5355058275      -604.7751361571       269.2304957289       312.1807607172         8.5873617359      2298.9549495650     -3096.3840738858      -397.3446300183       118.2171840146      -919.9475998528 
  203000       298.0553802867     11568.0085240402         0.7681193669       354.1376733130      -535.1972461753       283.3592834315       311.3109529599         9.6957179774      2356.9063565004     -3094.8549715917      -401.6145854528       555.3222050735      1192.5046940159 
  204000       287.7680502372     11607.7840513448         0.7654873096       228.8201651027      -629.8195130095       235.6329633899       296.8493412131        11.5384075624      2315.7557646992     -3096.9784670807      -392.6175227934       286.4276729879       340.2936762366 
  205000       296.2954933403     11681.4491951549         0.7606600204       357.2502681163      -526.8335167865       278.3823231897       321.7631174996        17.8737711123      2360.6871214587     -3094.0806792561      -411.4591707909       295.5284132112      -362.2983493745 
  206000       294.3295520852     11552.7952149760         0.7691308656       325.2169414552      -553.0008858991       292.3967514012       305.6530172259        19.2768443472      2319.4690050976     -3096.5575690419      -393.2389349291       199.5221416922      -746.0266570223 
  207000       316.9759833265     11308.3930023933         0.7857536771       339.9016162672      -605.8884256378       248.5771813660       303.6010565550        13.8481287676      2324.6263271459     -3097.6962829795      -398.8448364929       307.8893221686      -194.1064717500 
  208000       286.9196451466     11888.2355853947         0.7474289452       301.3192184536      -554.7889963038       263.7766189270       319.1721658835        14.2793811642      2323.8414336410     -3096.9053909561      -378.9532049634        15.8442632079     -1646.5492345591 
  209000       302.8919113030     11271.0841960128         0.7883546276       304.1463575265      -599.6197590024       255.9635779274       300.5663297783         6.5682850065      2341.7605640421     -3094.6947097621      -409.7838059946       893.0056813204      3582.3661493724 
  210000       288.7447777523     11227.1720048708         0.7914380736       332.9242857304      -528.6297430142       267.3377958912       325.7777174278        15.4198800936      2360.8216494588     -3095.9986505350      -401.9881353505       253.0735421391      -487.6774776632 
Loop time of 59.2761 on 64 procs for 100000 steps with 1002 atoms

Performance: 145.759 ns/day, 0.165 hours/ns, 1687.021 timesteps/s
99.3% CPU use with 64 MPI tasks x no OpenMP threads

MPI task timing breakdown:
Section |  min time  |  avg time  |  max time  |%varavg| %total
---------------------------------------------------------------
Pair    | 11.679     | 17.901     | 25.009     |  93.9 | 30.20
Bond    | 0.45994    | 0.49626    | 0.53355    |   1.9 |  0.84
Kspace  | 15.799     | 22.922     | 29.056     |  82.9 | 38.67
Neigh   | 1.5315     | 1.557      | 1.5705     |   0.8 |  2.63
Comm    | 12.597     | 13.185     | 14.281     |   9.6 | 22.24
Output  | 0.047012   | 0.04708    | 0.047861   |   0.0 |  0.08
Modify  | 2.0813     | 2.4298     | 2.8951     |  16.7 |  4.10
Other   |            | 0.7379     |            |       |  1.24

Nlocal:    15.6562 ave 21 max 8 min
Histogram: 3 1 1 10 5 9 18 4 5 8
Nghost:    4754.19 ave 4847 max 4692 min
Histogram: 6 6 13 10 9 5 6 6 1 2
Neighs:    11984.9 ave 20620 max 5462 min
Histogram: 5 8 7 9 11 8 8 5 1 2

Total # of neighbors = 767033
Ave neighs/atom = 765.502
Ave special neighs/atom = 5
Neighbor list builds = 3837
Dangerous builds = 0
unfix equil
undump equil

# WRITE RESTART FILES, CLEANUP, AND EXIT
write_restart   md-20.end.restart
PPPM initialization ...
WARNING: Using 12-bit tables for long-range coulomb (../kspace.cpp:321)
  G vector (1/distance) = 0.186414
  grid = 8 8 8
  stencil order = 5
  estimated absolute RMS force accuracy = 0.00732983
  estimated relative force accuracy = 2.20736e-05
  using double precision FFTs
  3d grid and FFT values/proc = 343 8
write_data      md-20.end.data pair ii
PPPM initialization ...
WARNING: Using 12-bit tables for long-range coulomb (../kspace.cpp:321)
  G vector (1/distance) = 0.186414
  grid = 8 8 8
  stencil order = 5
  estimated absolute RMS force accuracy = 0.00732983
  estimated relative force accuracy = 2.20736e-05
  using double precision FFTs
  3d grid and FFT values/proc = 343 8
unfix		averages
Total wall time: 0:03:10
