
#===========================================================
# GENERAL PROCEDURES
#===========================================================
units		real	# g/mol, angstroms, fs, kcal/mol, K, atm, charge*angstrom
dimension	3	# 3 dimensional simulation
newton		on	# use Newton's 3rd law
boundary	p p p	# periodic boundary conditions
atom_style	full    # molecular + charge

#===========================================================
# FORCE FIELD DEFINITION
#===========================================================
special_bonds  lj   0.0 0.0 0.0  coul 0.0 0.0 0.0     # NO     1-4 LJ/COUL interactions
pair_style     hybrid lj/cut/coul/long 14.0 14.0 # outer_LJ outer_Coul (cutoff values, see LAMMPS Doc)
kspace_style   pppm 0.0001          # long-range electrostatics sum method
bond_style     harmonic             # parameters needed: k_bond, r0
angle_style    harmonic             # parameters needed: k_theta, theta0
dihedral_style hybrid opls            # parameters needed: V1, V2, V3, V4
pair_modify    shift yes mix arithmetic       # using Lorenz-Berthelot mixing rules

#===========================================================
# SETUP SIMULATIONS
#===========================================================

# READ IN COEFFICIENTS/COORDINATES/TOPOLOGY
read_data ${data_name}
read_data md-19.data
  orthogonal box = (-11.1744 -11.1744 -11.1744) to (11.1744 11.1744 11.1744)
  4 by 4 by 4 MPI processor grid
  reading atoms ...
  1002 atoms
  reading velocities ...
  1002 velocities
  scanning bonds ...
  1 = max bonds/atom
  scanning angles ...
  6 = max angles/atom
  scanning dihedrals ...
  3 = max dihedrals/atom
  reading bonds ...
  835 bonds
  reading angles ...
  1169 angles
  reading dihedrals ...
  501 dihedrals
  4 = max # of 1-2 neighbors
  3 = max # of 1-3 neighbors
  4 = max # of 1-4 neighbors
  5 = max # of special neighbors
include ${settings_name}
include md-19.in.settings
     # Non-bonded interactions (pair-wise)
     pair_coeff           1          1          lj/cut/coul/long     0.008205             2.469856
     pair_coeff           1          2          lj/cut/coul/long     0.001889             2.249520
     pair_coeff           1          3          lj/cut/coul/long     0.026647             3.130603
     pair_coeff           1          4          lj/cut/coul/long     0.036364             2.727439
     pair_coeff           2          2          lj/cut/coul/long     0.001000             1.783267
     pair_coeff           2          3          lj/cut/coul/long     0.003906             3.074119
     pair_coeff           2          4          lj/cut/coul/long     0.006260             2.607403
     pair_coeff           3          3          lj/cut/coul/long     0.204058             3.439537
     pair_coeff           3          4          lj/cut/coul/long     0.179052             3.225463
     pair_coeff           4          4          lj/cut/coul/long     0.201764             2.901201

     # Stretching interactions
     bond_coeff           1           366.904251           1.096103
     bond_coeff           2           612.219900           0.957501
     bond_coeff           3           368.709924           1.411527

     # Bending interactions
     angle_coeff          1           40.926667            108.205025
     angle_coeff          2           61.328715            112.232133
     angle_coeff          3           49.873049            108.741688

     # Dihedral interactions
     dihedral_coeff       1          opls                  0.105414            -0.205941             0.372587            -0.070860

# SET RUN PARAMETERS
timestep	1.0		# fs
run_style	verlet 		# Velocity-Verlet integrator
neigh_modify every 1 delay 0 check no one 10000 # More relaxed rebuild criteria can be used

#===========================================================
# RUN CONSTRAINED RELAXATION
#===========================================================

# SET OUTPUTS
thermo_style    custom step temp vol density etotal pe ebond eangle edihed ecoul elong evdwl enthalpy press
thermo_modify   format float %20.10f
thermo ${thermo_freq}
thermo 1000

# DECLARE RELEVANT OUTPUT VARIABLES
variable        my_step equal   step
variable        my_temp equal   temp
variable        my_rho  equal   density
variable        my_pe   equal   pe
variable        my_ebon equal   ebond
variable        my_eang equal   eangle
variable        my_edih equal   edihed
variable        my_evdw equal   evdwl
variable        my_eel  equal   (ecoul+elong)
variable        my_ent  equal   enthalpy
variable        my_P    equal   press
variable        my_vol  equal   vol

fix  averages all ave/time ${dump4avg} $(v_avg_freq/v_dump4avg) ${avg_freq} v_my_temp v_my_rho v_my_vol v_my_pe v_my_edih v_my_evdw v_my_eel v_my_ent v_my_P file thermo.avg
fix  averages all ave/time 100 $(v_avg_freq/v_dump4avg) ${avg_freq} v_my_temp v_my_rho v_my_vol v_my_pe v_my_edih v_my_evdw v_my_eel v_my_ent v_my_P file thermo.avg
fix  averages all ave/time 100 10 ${avg_freq} v_my_temp v_my_rho v_my_vol v_my_pe v_my_edih v_my_evdw v_my_eel v_my_ent v_my_P file thermo.avg
fix  averages all ave/time 100 10 1000 v_my_temp v_my_rho v_my_vol v_my_pe v_my_edih v_my_evdw v_my_eel v_my_ent v_my_P file thermo.avg

# INITIALIZE VELOCITIES AND CREATE THE CONSTRAINED RELAXATION FIX
velocity        all create ${ANNEAL_TEMP} ${vseed} mom yes rot yes     # DRAW VELOCITIES
velocity        all create 100.0 ${vseed} mom yes rot yes     
velocity        all create 100.0 25070 mom yes rot yes     

fix relax all nve/limit 0.01
run             10000
PPPM initialization ...
WARNING: Using 12-bit tables for long-range coulomb (../kspace.cpp:321)
  G vector (1/distance) = 0.186532
  grid = 8 8 8
  stencil order = 5
  estimated absolute RMS force accuracy = 0.00728782
  estimated relative force accuracy = 2.19471e-05
  using double precision FFTs
  3d grid and FFT values/proc = 343 8
Neighbor list info ...
  update every 1 steps, delay 0 steps, check no
  max neighbors/atom: 10000, page size: 100000
  master list distance cutoff = 16
  ghost atom cutoff = 16
  binsize = 8, bins = 3 3 3
  1 neighbor lists, perpetual/occasional/extra = 1 0 0
  (1) pair lj/cut/coul/long, perpetual
      attributes: half, newton on
      pair build: half/bin/newton
      stencil: half/bin/3d/newton
      bin: standard
Per MPI rank memory allocation (min/avg/max) = 8.559 | 8.684 | 9.161 Mbytes
Step Temp Volume Density TotEng PotEng E_bond E_angle E_dihed E_coul E_long E_vdwl Enthalpy Press 
       0       100.0000000000     11162.3896896104         0.7960312828      -251.8476463104      -550.2267323154       286.4593223883       324.6036840121        16.9133271590      2303.8667760657     -3102.3300088587      -379.7398330818      -422.5533762491     -1048.6124977530 
    1000        23.9639667960     11162.3896896104         0.7960312828     -1392.1062009999     -1463.6096660964         9.1140365948        18.1589809972       -36.6399516731      2079.9042024888     -3105.5587012916      -428.5882332125     -1822.2206569101     -2642.1104557742 
    2000        19.0308009167     11162.3896896104         0.7960312828     -1437.9560934714     -1494.7400233060         8.6719137519        17.0452518315       -37.1341136996      2043.7822405195     -3105.3261630729      -421.7791526363     -1810.6661660300     -2289.4863591501 
    3000        16.6980977547     11162.3896896104         0.7960312828     -1459.4986136181     -1509.3222450787         8.4305024239        16.9553486177       -36.9011715506      2037.4353271587     -3105.3654711162      -429.8767806122     -1866.1160322575     -2497.7726707972 
    4000        16.2232518548     11162.3896896104         0.7960312828     -1476.0354376807     -1524.4422282852         8.5825604756        16.6579984572       -37.8166758017      2035.6441357576     -3104.7752693606      -442.7349778133     -1874.2920251698     -2446.4136915825 
    5000        15.0814859163     11162.3896896104         0.7960312828     -1488.9931491268     -1533.9931489597         8.7890363627        16.6795208453       -37.3188089861      2026.1996591819     -3104.9656357324      -443.3769206312     -1858.4166060016     -2269.2973105305 
    6000        14.0766702049     11162.3896896104         0.7960312828     -1499.8432572131     -1541.8450971105         8.4939717635        16.5765740439       -36.9114345985      2018.5134100082     -3105.1488255259      -443.3687928016     -1830.6831999922     -2032.2861972976 
    7000        14.4311996012     11162.3896896104         0.7960312828     -1505.5738114836     -1548.6334929531         8.5624260909        16.3621063464       -37.7281361749      2027.0253483064     -3105.1794948487      -457.6757426732     -1936.0324169293     -2644.2245002425 
    8000        13.5122306761     11162.3896896104         0.7960312828     -1510.9832006100     -1551.3008710003         8.4451981345        16.5023278938       -38.1453096038      2014.3781554082     -3104.7732892475      -447.7079535854     -1835.2541441721     -1991.9340973471 
    9000        13.0400340558     11162.3896896104         0.7960312828     -1517.1212902485     -1556.0300246790         8.5841219709        17.1748047219       -37.3864226787      2018.0476518081     -3104.4671350075      -457.9830454935     -1831.6772154961     -1932.2566065900 
   10000        12.0560904578     11162.3896896104         0.7960312828     -1523.9575038890     -1559.9303564050         8.4340260355        16.8290998808       -37.8152157921      2014.3824010372     -3104.9934345647      -456.7672330017     -1816.0755779103     -1794.4251979605 
Loop time of 11.9947 on 64 procs for 10000 steps with 1002 atoms

Performance: 72.032 ns/day, 0.333 hours/ns, 833.704 timesteps/s
98.9% CPU use with 64 MPI tasks x no OpenMP threads

MPI task timing breakdown:
Section |  min time  |  avg time  |  max time  |%varavg| %total
---------------------------------------------------------------
Pair    | 0.25389    | 1.7907     | 3.1949     |  47.3 | 14.93
Bond    | 0.0049047  | 0.044602   | 0.06697    |   5.7 |  0.37
Kspace  | 1.1544     | 2.5648     | 4.1253     |  39.8 | 21.38
Neigh   | 4.1849     | 4.3012     | 4.413      |   2.6 | 35.86
Comm    | 3.0743     | 3.1837     | 3.3111     |   3.2 | 26.54
Output  | 0.0014279  | 0.00175    | 0.0017655  |   0.1 |  0.01
Modify  | 0.0079436  | 0.0095584  | 0.011275   |   0.5 |  0.08
Other   |            | 0.0984     |            |       |  0.82

Nlocal:    15.6562 ave 26 max 0 min
Histogram: 2 1 2 9 2 10 15 12 8 3
Nghost:    4761.64 ave 5092 max 4308 min
Histogram: 3 4 4 4 8 8 10 10 6 7
Neighs:    12023.9 ave 23757 max 0 min
Histogram: 2 3 9 7 12 10 9 4 5 3

Total # of neighbors = 769529
Ave neighs/atom = 767.993
Ave special neighs/atom = 5
Neighbor list builds = 10000
Dangerous builds not checked
unfix relax

#===========================================================
# RUN RAMPED ANNEAL
#===========================================================

# REINITIALIZE THE VELOCITIES AND CREATE THE ANNEALING FIX
velocity        all create ${ANNEAL_TEMP} ${vseed} mom yes rot yes     # DRAW VELOCITIES
velocity        all create 100.0 ${vseed} mom yes rot yes     
velocity        all create 100.0 25070 mom yes rot yes     

fix mom all momentum 1000 linear 1 1 1 angular # Zero out system linear and angular momentum every ps
fix anneal all npt temp ${ANNEAL_TEMP} ${FINAL_TEMP} 100.0 iso ${pressure} ${pressure} 1000.0 # NPT, nose-hoover 100 fs T relaxation
fix anneal all npt temp 100.0 ${FINAL_TEMP} 100.0 iso ${pressure} ${pressure} 1000.0 
fix anneal all npt temp 100.0 298.0 100.0 iso ${pressure} ${pressure} 1000.0 
fix anneal all npt temp 100.0 298.0 100.0 iso 1.0 ${pressure} 1000.0 
fix anneal all npt temp 100.0 298.0 100.0 iso 1.0 1.0 1000.0 

# CREATE COORDINATE DUMPS FOR ANNEAL
dump anneal all custom ${coords_freq} anneal.lammpstrj id type x y z mol
dump anneal all custom 1000 anneal.lammpstrj id type x y z mol
dump_modify anneal sort id format float %20.10g

# RUN RAMPED ANNEAL
run ${nSteps_ramp}
run 50000
PPPM initialization ...
WARNING: Using 12-bit tables for long-range coulomb (../kspace.cpp:321)
  G vector (1/distance) = 0.186532
  grid = 8 8 8
  stencil order = 5
  estimated absolute RMS force accuracy = 0.00728782
  estimated relative force accuracy = 2.19471e-05
  using double precision FFTs
  3d grid and FFT values/proc = 343 8
Per MPI rank memory allocation (min/avg/max) = 9.834 | 10.36 | 10.55 Mbytes
Step Temp Volume Density TotEng PotEng E_bond E_angle E_dihed E_coul E_long E_vdwl Enthalpy Press 
   10000       100.0000000000     11162.3896896104         0.7960312828     -1261.5512704000     -1559.9303564050         8.4340260355        16.8290998808       -37.8152157921      2014.3824010372     -3104.9934345647      -456.7672330017     -1378.7318554286      -719.8178174753 
   11000        91.8690344742      9951.2827153156         0.8929111591     -1008.7795917986     -1282.8975771843       106.8197629236       108.7268659806       -17.8733539388      2085.0574731881     -3104.2697371930      -461.3585881447     -1601.7539800939     -4085.8364799973 
   12000       114.3159249799      9915.6100234642         0.8961235227      -952.8978957196     -1293.9927078327        72.6654266296       110.5949290296       -14.9545510080      2089.7278866133     -3103.9464181551      -448.0799809421      -985.5321526602      -225.6723759630 
   13000       109.2550171938      9686.1740975070         0.9173499561      -970.3215397582     -1296.3156614756        86.1705054634       101.3014596181       -13.7636570555      2110.8249112042     -3105.4323675681      -475.4165131377      -979.5071950650       -65.0252430717 
   14000       111.2871722285      9618.6608803102         0.9237888199      -957.2644576193     -1289.3221049554        86.3639493586       116.4659282983       -15.3708688514      2115.1768028298     -3104.9932942014      -486.9646223893     -1190.8929915041     -1665.4645034888 
   15000       120.6763264662      9516.4671732788         0.9337090353      -918.2852612268     -1278.3581811611        87.9905638794       119.2529539162       -12.3964907196      2122.0814593040     -3105.0127259901      -490.2739415510      -821.4244512596       697.9052303903 
   16000       121.8957174148      9628.9417040600         0.9228024903      -889.5786968693     -1253.2900243709       101.7757699627       131.8038784310       -16.2198486243      2113.6161773246     -3104.3312025208      -479.9347989441      -719.7349852206      1209.4697904921 
   17000       126.7797428496      9560.0102522743         0.9294562609      -871.5809742047     -1249.8652121587        96.4782973601       135.2623242094       -12.3290257525      2122.4957127315     -3104.8381788247      -486.9343418825      -909.6212192007      -272.8406389490 
   18000       130.9995587354      9582.7972894734         0.9272460969      -845.4837330308     -1236.3590190562       103.6581444471       129.7805112551       -10.0836827330      2134.6144064959     -3104.8491917607      -489.4792067605      -827.4309516048       129.1742454038 
   19000       134.6090196013      9561.1009545659         0.9293502313      -810.7655594825     -1212.4107218492       121.3860394722       140.0723941692       -11.8247790777      2105.7615761515     -3105.2164583387      -462.5894942257      -437.9318961908      2673.8148119175 
   20000       136.0042004427      9758.1230929051         0.9105861136      -806.0951729115     -1211.9032631209       110.8672065901       151.2735126996       -12.8839683168      2112.4426921637     -3105.3909729598      -468.2117332977      -837.6684205285      -221.8590117064 
   21000       149.6712145921      9617.5730987999         0.9238933037      -748.9142539036     -1195.5018560162       118.8083919126       142.2210980484        -9.9464869586      2134.0144888565     -3105.8110472472      -474.7883006279      -555.7082720047      1377.4605933571 
   22000       146.7921531371      9531.1448008927         0.9322711562      -733.4119726484     -1171.4090575059       118.5677660840       157.7007459903        -9.0029158471      2139.2659086775     -3105.3523437927      -472.5882186179      -612.7522178319       868.0434842709 
   23000       146.9882278038      9800.7941667932         0.9066215689      -733.1930467478     -1171.7751774037       121.6702340703       155.1476639909        -3.9777465145      2142.1570117124     -3105.2356388218      -481.5367018409      -791.0596466500      -404.8468898751 
   24000       159.6451355542      9963.4019801585         0.8918250414      -669.3766937514     -1145.7243900694       130.6049089488       163.4585149823        -6.8522738823      2129.3416589846     -3104.7154747443      -457.5617243585      -672.9117024342       -24.3280300118 
   25000       161.1858008481      9866.5089690207         0.9005831152      -655.0461108807     -1135.9908302212       131.0589489909       162.0512056719        -9.3180692585      2146.3653675840     -3105.3010625062      -460.8472207034      -645.3961687500        67.0633593731 
   26000       156.9849653424      9721.7651185312         0.9139915720      -644.6212099118     -1113.0315146656       144.9013218565       164.9484750877        -0.5782390749      2168.8668643171     -3104.7669970395      -486.4029398125      -800.0674545257     -1096.3752447138 
   27000       174.8248378884      9814.8402412035         0.9053240975      -575.7206823475     -1097.3614357485       131.7967513290       168.7717558725         4.8739637629      2156.0631300154     -3104.8539011400      -454.0131355884      -157.7629461699      2919.9354041823 
   28000       163.0688361806      9752.6201022414         0.9110999188      -586.1760174485     -1072.7393204032       141.0720153944       187.9397450382        -0.3357253970      2157.9043793944     -3105.4672040953      -453.8525307378      -686.5820004178      -705.9312304326 
   29000       178.2997147406      9978.6414616927         0.8904630372      -541.9755415126     -1073.9846007052       138.9442708791       186.3463843162         0.6493050611      2158.3263164105     -3104.4713811612      -453.7794962109      -575.0202121303      -227.0670508757 
   30000       177.9883775538      9839.1015620974         0.9030917434      -545.9544447313     -1077.0345388714       141.6550624587       189.2302265679         5.6155187518      2150.6635979962     -3105.5562728071      -458.6426718389      -393.2178270304      1064.4170834204 
   31000       190.7565557765      9992.2484172440         0.8892504482      -474.0437330690     -1043.2214006895       158.1962275694       202.0193597259        -5.6796411571      2169.1697982074     -3104.8085699398      -462.1185750954      -640.7442001064     -1143.9254036944 
   32000       180.9646092644     10080.6648578795         0.8814509270      -497.8153903835     -1037.7759374990       145.1104547411       212.7209368798        -1.8985107488      2175.5360209999     -3104.5637648386      -464.6810745324      -209.1174294740      1963.7158731469 
   33000       188.7901341561      9853.3776409341         0.9017832978      -446.7083449779     -1010.0186217406       164.0083699038       226.5752025397        -3.6779698388      2171.0106181269     -3104.9722221998      -462.9626202723      -708.0768724289     -1818.8306904776 
   34000       197.2826810824     10021.8725623625         0.8866218691      -435.6294067608     -1024.2796674208       148.4324367068       210.2646798594        -1.3359231571      2184.5576693513     -3105.3349476661      -460.8635825151       -57.2943485519      2588.5217676532 
   35000       196.1552838399      9896.4689081751         0.8978567473      -391.2855296984      -976.5718727704       155.0144951143       233.3166688504         4.3082367657      2187.6664826253     -3104.4135096467      -452.4642464793      -390.5089931721         5.3802906159 
   36000       196.8719802346     10189.9520408956         0.8719973703      -351.1095056677      -938.5343208916       182.7334972244       239.5332866436        -0.0790236439      2185.3380598818     -3104.1306064803      -441.9295345172      -442.4247851711      -614.4625564184 
   37000       217.1384486401     10137.4284805716         0.8765153215      -268.8072852120      -916.7030036297       181.4083555047       241.8461565141         5.3880042996      2201.9906426025     -3104.3995112549      -442.9366512956       -78.3418245418      1288.2867460353 
   38000       210.7856548182     10256.5827734780         0.8663325378      -310.6053773499      -939.5456876262       184.6244139129       231.9155215580         0.9130442860      2183.9046578746     -3102.8613115524      -438.0420137053      -548.3021101944     -1589.0758727135 
   39000       210.1561311475     10373.3161104531         0.8565834964      -272.6042408462      -899.6661841475       179.5096064658       230.6794833005         8.2821075557      2211.4543154488     -3104.8105033407      -424.7811935778      -182.4424793189       595.9761580295 
   40000       207.8476383543     10255.5287709568         0.8664215744      -279.7281734850      -899.9020570895       190.9157787254       241.8537694000         3.2196663729      2223.4279247176     -3104.2753261231      -455.0438701823      -180.4870669682       663.5255508204 
   41000       219.0231527951     10218.3020802245         0.8695780682      -244.7555095851      -898.2747910346       180.0813686837       245.8986187883         1.8995100193      2241.4485243533     -3104.9485041134      -462.6543087659        61.3406746398      2054.0134774905 
   42000       229.1667114311     10409.1619999476         0.8536336915      -174.2645449218      -858.0500839177       195.2002040097       260.1716814271         8.7509334133      2210.6450375355     -3104.5568878430      -428.2610524603      -481.4109395289     -2023.2696398887 
   43000       230.5149253718     10555.8093601636         0.8417745225      -133.6721832587      -821.4805106882       206.3973509378       249.2184972600        14.0579769571      2229.6178132226     -3103.2462553166      -417.5258937491        68.3745916294      1312.4552213135 
   44000       243.4936848920     10459.1138695011         0.8495568071      -118.9068798029      -845.4411112636       205.0777761832       242.3131131557         5.0720539707      2241.0529756467     -3104.4213000061      -434.5357302139       -63.6930595983       361.9736991832 
   45000       247.6735660165     10364.8741343319         0.8572811660       -88.3620013612      -827.3681239173       199.7940294758       270.4627056384         7.1955358313      2229.8283145105     -3104.7717392265      -429.8769701467      -255.9921614309     -1108.9506957065 
   46000       239.1588734272     10610.1163172216         0.8374659728       -74.1316460033      -787.7317066351       220.0214933658       286.5053026596         0.1780384907      2229.6459859185     -3104.6138081895      -419.4687188802      -335.6338836024     -1689.9714776940 
   47000       238.2184911924     10638.0989285430         0.8352630901       -86.2193950642      -797.0135517790       216.2123320454       246.8625042681         6.7116836777      2273.7188603181     -3103.7621595161      -436.7567725722      -141.2038814698      -354.4053413815 
   48000       244.2985256281     10633.6790734214         0.8356102645       -70.0788193743      -799.0145272671       204.2487398214       256.6787266989        15.8519158842      2235.0367435557     -3102.9243481718      -407.9063050555       239.9694452113      1999.2627132478 
   49000       262.9163497041     10728.4996146625         0.8282249804        25.3526717302      -759.1347294746       227.2338786720       263.7381086972         4.7796679850      2260.9564618275     -3103.7512055493      -412.0916411069       147.2293405422       778.9430308127 
   50000       264.0968340282     10899.6469399427         0.8152201106        71.0909016735      -716.9188178678       232.2068563510       285.0666583925         6.7477321273      2263.9352513705     -3104.2496878878      -400.6256282214       267.2803233139      1234.2049018440 
   51000       257.6235817473     11002.1613376868         0.8076241668        33.2943797028      -735.4005088482       232.5536715985       276.9825346841         6.0882342851      2264.5196848272     -3103.8503929108      -411.6942413323      -111.9059454979      -904.9273002743 
   52000       260.0754726637     11207.9323553193         0.7927966642        99.9936428635      -676.0171753937       242.5340823371       293.0174150507         2.3666234898      2295.9926205561     -3102.2872112971      -407.6407055302       525.0811059400      2600.6200479689 
   53000       259.0036058942     11035.0511547164         0.8052170542       104.6442975466      -668.1682944406       251.9600075024       297.3857814077         4.8042013868      2295.1458932673     -3103.1933945980      -414.2707834068       208.9117104171       647.8856451540 
   54000       275.6625099593     10754.8592331524         0.8261950427       145.9632969837      -676.5559806912       246.0860465756       284.5576570761        16.2714583560      2294.3945342841     -3103.5200634018      -414.3456135812       345.4372131544      1271.7609751231 
   55000       279.8675637975     11062.4898067712         0.8032198482       211.7621064827      -623.3041724006       259.5919033460       297.2486150421        22.7978935823      2302.5672703862     -3104.5456683160      -400.9641864412       351.6885007225       867.3030427395 
   56000       283.2534034422     11077.6662782699         0.8021194321       228.3402617609      -616.8286545081       255.7265070674       316.2796078425        11.3401420828      2292.4581997080     -3103.1054712988      -389.5276399101       387.7719186132       986.8482888523 
   57000       286.6626167314     11105.6130012448         0.8001009384       249.5773557626      -605.7639399586       251.2926889033       321.5515633381         3.2942415236      2330.1866018515     -3103.7031429310      -408.3858926441       202.5157281711      -290.5684909883 
   58000       291.6321437869     10990.0459833485         0.8085144864       234.4190882438      -635.7502368842       234.9668872295       312.3810941949         9.0641243960      2310.5549698801     -3103.5638552404      -399.1534573443       336.1354509184       634.6224373157 
   59000       297.6944914981     11335.6973575262         0.7838610280       284.8494355256      -603.4086672936       265.7184800693       303.2955111565        11.1783289867      2302.6401590115     -3103.9339208434      -382.3072256743       100.4363739401     -1115.4947895482 
   60000       313.6896589334     11358.8844270713         0.7822609201       385.1731517008      -550.8111855169       283.9738625043       312.7878108388         6.3568384391      2346.0074802738     -3102.9454695565      -396.9917080163       344.3598108340      -246.3715615785 
Loop time of 62.7122 on 64 procs for 50000 steps with 1002 atoms

Performance: 68.886 ns/day, 0.348 hours/ns, 797.294 timesteps/s
99.4% CPU use with 64 MPI tasks x no OpenMP threads

MPI task timing breakdown:
Section |  min time  |  avg time  |  max time  |%varavg| %total
---------------------------------------------------------------
Pair    | 6.7843     | 10.647     | 15.254     |  69.6 | 16.98
Bond    | 0.21752    | 0.25923    | 0.30622    |   3.8 |  0.41
Kspace  | 7.2648     | 11.87      | 15.803     |  66.1 | 18.93
Neigh   | 20.905     | 21.257     | 21.569     |   3.9 | 33.90
Comm    | 16.545     | 16.879     | 17.251     |   4.7 | 26.92
Output  | 0.0288     | 0.028829   | 0.029225   |   0.0 |  0.05
Modify  | 1.0598     | 1.1104     | 1.1561     |   1.9 |  1.77
Other   |            | 0.6613     |            |       |  1.05

Nlocal:    15.6562 ave 24 max 8 min
Histogram: 2 7 2 10 9 16 9 4 3 2
Nghost:    4669.56 ave 4778 max 4559 min
Histogram: 2 3 8 8 9 14 9 5 3 3
Neighs:    11838.2 ave 22541 max 5178 min
Histogram: 3 12 14 11 6 4 8 3 2 1

Total # of neighbors = 757646
Ave neighs/atom = 756.134
Ave special neighs/atom = 5
Neighbor list builds = 50000
Dangerous builds not checked
unfix anneal

# RUN EQUILIBRATION PHASE AT FINAL TEMP
fix anneal all npt temp ${FINAL_TEMP} ${FINAL_TEMP} 100.0 iso ${pressure} ${pressure} 1000.0 # NPT, nose-hoover 100 fs T relaxation
fix anneal all npt temp 298.0 ${FINAL_TEMP} 100.0 iso ${pressure} ${pressure} 1000.0 
fix anneal all npt temp 298.0 298.0 100.0 iso ${pressure} ${pressure} 1000.0 
fix anneal all npt temp 298.0 298.0 100.0 iso 1.0 ${pressure} 1000.0 
fix anneal all npt temp 298.0 298.0 100.0 iso 1.0 1.0 1000.0 
run ${nSteps_ramp}
run 50000
PPPM initialization ...
WARNING: Using 12-bit tables for long-range coulomb (../kspace.cpp:321)
  G vector (1/distance) = 0.186175
  grid = 8 8 8
  stencil order = 5
  estimated absolute RMS force accuracy = 0.00741521
  estimated relative force accuracy = 2.23307e-05
  using double precision FFTs
  3d grid and FFT values/proc = 343 8
Per MPI rank memory allocation (min/avg/max) = 10.43 | 10.54 | 10.55 Mbytes
Step Temp Volume Density TotEng PotEng E_bond E_angle E_dihed E_coul E_long E_vdwl Enthalpy Press 
   60000       313.6896589334     11358.8844270713         0.7822609201       385.1721403885      -550.8121968292       283.9738625043       312.7878108388         6.3568384391      2340.0945560025     -3097.0335565974      -396.9917080163       344.3537442759      -246.4020777965 
   61000       296.4645469565     11749.1047298409         0.7562798688       334.3922692457      -550.1959362919       273.3895950003       314.9624090334         8.5488280153      2329.9329207897     -3097.3978131540      -379.6318759766       583.8502010935      1455.8500744769 
   62000       297.2837192837     11426.3579832439         0.7776416069       288.4149779833      -598.6174664570       231.0703013646       314.6965317505        17.8672642078      2328.9054595799     -3097.3182664309      -393.8387569289       318.6615402815       181.5065516960 
   63000       304.0248959938     11743.0582201795         0.7566692779       348.2854947011      -558.8612111929       243.4956452872       317.2127905901         9.7201214741      2342.8264335077     -3096.8208931124      -375.2953089395       398.0467188162       290.5587456055 
   64000       292.7973352874     11426.0248912854         0.7776642768       317.3699552517      -556.2760576258       255.5619961084       313.6822793462        14.4462667533      2391.0550092375     -3097.3786713876      -433.6429376837       -98.2131908343     -2493.9449982788 
   65000       293.1597180199     11093.8517162420         0.8009491754       315.1066391008      -559.6206480617       251.6240403464       333.4347947489        12.3189710040      2349.7467775362     -3096.3015452655      -410.4436864317       217.8203279179      -601.3031659007 
   66000       304.6288530785     11622.3521684478         0.7645278043       307.1425997364      -601.8061877867       221.4803943744       319.3593582960        16.5028175727      2337.3764766040     -3097.0186258035      -399.5066088303       513.1030401464      1215.1052340294 
   67000       295.0868431928     10990.1101993622         0.8085097622       304.2144122789      -576.2630133606       269.4950541911       287.5814763452        13.6270548897      2385.5393434214     -3097.5819398468      -434.9240023612        27.0949783212     -1728.9763257589 
   68000       304.5991389309     11793.0612867797         0.7534609689       363.4915337614      -545.3685929598       240.4576003616       324.7499993369        17.5134535106      2348.1330345105     -3096.8835744996      -379.3391061798       436.5795749357       424.9559140669 
   69000       306.2007511683     11352.5294548909         0.7826988178       371.4846407235      -542.1543619528       255.8837883947       314.5694451397         8.3792051903      2384.0538853198     -3096.4431376057      -408.5975483917       538.8128585237      1010.6497168689 
   70000       284.9102282722     11678.9556600916         0.7608224264       297.9749520855      -552.1375829679       248.8657962998       318.6994661465         7.2538921487      2362.0488754217     -3095.2088448461      -393.7967681385       241.3735028182      -332.3132458003 
   71000       284.0550569776     11383.1555005164         0.7805929896       267.5655469466      -579.9953358140       262.6223460284       309.0631921433        14.5563499375      2321.6727549079     -3097.6058888794      -390.3040899517       111.7969407147      -938.2992646983 
   72000       295.4629047811     11683.5537679867         0.7605230018       335.5881286905      -546.0113860790       271.8890344811       308.4458738483        14.8647557957      2336.0728534223     -3096.8157958303      -380.4681077961       333.9484840866        -9.6227426933 
   73000       293.0841284928     11153.0065971037         0.7967009888       312.7095460673      -561.7921977552       278.2474778904       292.3931526795        15.3025394025      2376.1953274248     -3096.4142223930      -427.5164727593       -17.5495578539     -2030.4249888166 
   74000       317.6013773907     11858.5191173160         0.7493019403       434.4531304372      -513.2029565604       251.1290577423       324.5538942243         9.7531119889      2379.4393239507     -3096.0910120256      -381.9873324409       663.0563829232      1321.8313797650 
   75000       301.8632960884     11433.4803967870         0.7771571801       327.6821423152      -573.0148015379       268.9323048855       297.8191621927        13.9907180938      2343.3181900603     -3097.7476914480      -399.3274853222      -123.9874849299     -2708.7351680370 
   76000       283.6790441610     11765.4122568536         0.7552316221       328.5342795528      -517.9046596024       271.9289693114       314.7267740354        11.1461012266      2376.7757509554     -3097.6555345232      -394.8267206079        -4.4915441731     -1940.8629624218 
   77000       297.8747178171     11748.4098619153         0.7563245995       338.0560230685      -550.7398373941       265.9023587022       301.6111853630        13.7995467317      2357.6723549209     -3097.4519498905      -392.2733332213       266.5920441043      -417.0923405603 
   78000       305.9947085596     11383.3468508966         0.7805798681       356.0991016626      -556.9251129611       259.2261738933       306.2691069865        17.5083784483      2371.1662484137     -3096.3376712119      -414.7573494910        50.0571133398     -1843.4661033887 
   79000       311.1329676376     11606.6031085254         0.7655651960       364.2362583712      -564.1194467261       227.1947590606       336.5089525249        11.4084952128      2369.9061968882     -3096.5440841146      -412.5937662981       319.3625898277      -265.1005034368 
   80000       302.1854620283     11372.3810535849         0.7813325408       315.8206020697      -585.8376175702       273.6384203705       299.1825577649        10.9256890896      2328.7578152727     -3097.4216142627      -400.9204858052       496.9916454047      1092.3491946713 
   81000       297.0672130770     11490.1630321565         0.7733233514       329.6726482390      -556.7137869607       269.2286922486       303.2127234205        15.8057046918      2328.0498240929     -3095.5398096020      -377.4709218124       292.0187001016      -224.7027770666 
   82000       301.8817418895     11666.1325730446         0.7616587012       350.7373766265      -550.0146056392       249.4120417345       311.4225129915        13.0336772151      2361.1026840522     -3095.4401909384      -389.5453306942       796.4318747084      2619.5969500904 
   83000       284.7402747884     11964.1343365780         0.7426873632       306.0956658291      -543.5097635725       252.5637206263       316.0137486693         8.1571916298      2353.6740040869     -3095.9575974968      -377.9608310879      -157.9021975204     -2659.2478116859 
   84000       299.8150224255     11369.7805985693         0.7815112444       322.4442523971      -572.1410712219       266.5123027588       318.7835865034         9.7776314333      2314.0409195870     -3096.2355083088      -385.0200031956       -80.7412727004     -2431.5150294419 
   85000       295.7864011007     11490.3424546975         0.7733112758       342.1216897608      -540.4430703705       260.3369626418       331.3461694552        13.9028185907      2332.2578603037     -3096.9435588207      -381.3433225412        45.3085320428     -1771.2272594233 
   86000       307.0705528971     11379.8458945937         0.7808200099       335.4001902756      -580.8341188492       263.1548081657       322.2480578868         9.5903328120      2318.1907863261     -3097.7650771151      -396.2530269246       451.6143597197       700.2398339254 
   87000       296.5343158307     11483.3080033741         0.7737849913       306.4203852383      -578.3759960286       252.6167234559       315.8788247262        12.9038156298      2335.9594033972     -3097.7075918742      -398.0271713635       185.0196313795      -724.9006357277 
   88000       304.6061961764     11576.9494339275         0.7675261462       348.2014831195      -560.6797009462       262.2763178087       315.9918966267        11.3567798712      2332.1403685323     -3097.2089262107      -385.2361375743       282.1323139167      -391.3170942363 
   89000       306.2893249985     11433.3361450527         0.7771669853       303.4201717553      -610.4831167061       254.8334924726       300.8888846505         9.1070664638      2318.5456371504     -3098.4630433888      -395.3951540546       -38.1017531742     -2048.1875791168 
   90000       310.9590440034     11614.8316719780         0.7650228290       388.5638704536      -539.2728828937       281.3522316862       318.7192911204         8.9732006377      2323.6543502327     -3096.6739504753      -375.2980060955        50.2864456846     -1997.0282395611 
   91000       285.0882443709     11890.8493847629         0.7472646483       354.9281906197      -495.7155072419       288.7305739724       332.4153229127        14.0847747634      2338.3882799976     -3096.5211690457      -372.8132898421       456.6009378350       586.2944605272 
   92000       294.0417611098     11117.3833271234         0.7992538462       283.9405054967      -593.4186137758       250.7874721203       309.6679172679        17.3224560912      2341.2728600703     -3097.6835774384      -414.7857418871      -183.8494538488     -2885.1767651998 
   93000       305.4222069338     11627.2513955149         0.7642056649       354.0042375369      -557.3117519684       260.4252443307       317.3220064939        10.1903094540      2325.8235296238     -3097.0841316971      -373.9887101738       657.6253344651      1790.5192438650 
   94000       318.1262655524     11052.2009399701         0.8039675927       413.9929862716      -535.2292572255       270.4425765321       333.8469429145        20.4939702079      2347.2886541764     -3096.2548586409      -411.0465424155       173.5959654674     -1491.4353056735 
   95000       304.0253252303     11193.8969244851         0.7937907097       293.8052568846      -613.3427297613       254.4317194775       300.1536131279        11.2575548942      2318.1042949486     -3097.0564003174      -400.2335118920       117.0908840672     -1082.4670383827 
   96000       298.6079228196     11504.2454830249         0.7723767192       293.6318213081      -597.3517695395       265.7835305858       292.0933850490         0.5050486283      2344.3669349069     -3096.0171548201      -404.0835138894       145.3475333852      -883.8144672141 
   97000       286.0684247807     11618.6502418109         0.7647713976       288.7179465149      -564.8504046946       260.9915526286       321.5930039791         8.8548286477      2315.6813229620     -3097.0516768598      -374.9194360522      -179.5287440069     -2763.3961544464 
   98000       287.6748933910     11126.0972513733         0.7986278731       330.5596077802      -527.8021097859       278.7081139738       334.2052052009        22.6342928001      2352.6843252638     -3097.0000150118      -419.0340320127       482.3409616548       935.4049876251 
   99000       289.6038133489     11618.0699538974         0.7648095956       284.5463141079      -579.5708971982       260.6768704839       310.1568239240        10.8661603675      2300.0434961927     -3097.5066099881      -363.8076381782       289.2975946677        28.0414714745 
  100000       292.4207155720     11979.8079391570         0.7417156793       324.5625345012      -547.9597239118       272.8183198231       326.2009975856        14.1375431370      2320.8560623493     -3097.0421224827      -384.9305243241         5.0268075417     -1828.9156591462 
  101000       312.4407339576     11389.4435917992         0.7801620256       392.6349554469      -539.6228508431       268.1735054971       328.6451093998        13.3424589987      2330.6903385284     -3095.6768677091      -384.7973955579       312.2392047628      -484.0104042581 
  102000       302.7663025130     11627.3126334266         0.7642016400       357.1536104097      -546.2377157599       249.5703522828       336.5031649182        10.0627605996      2338.5338084862     -3097.1689618345      -383.7388402121      -145.5267511071     -2964.3991460025 
  103000       290.4498775921     11398.5872162529         0.7795362017       313.1068917422      -553.5347983197       256.6358786159       319.5473271909        12.1016926985      2334.2481875559     -3097.0432227017      -379.0246616792       664.1883433734      2111.9370512803 
  104000       294.2122471279     11212.5533924049         0.7924699284       283.0085343933      -594.8592795016       258.0567049519       315.3834756282        14.4280736693      2314.7162423007     -3097.9219318221      -399.5218442297       164.6636405711      -723.7175609106 
  105000       288.6870535786     11408.1056130396         0.7788857927       294.7185890519      -566.6632028305       283.6522546094       309.9061876976         7.5335418550      2322.6410433007     -3097.2242419607      -393.1719883325       346.8411776458       313.2828014401 
  106000       308.4749015909     11379.3030104565         0.7808572612       360.1255791839      -560.2990127380       261.8693145119       313.7715256820        16.5965511385      2332.5319995340     -3094.8185657243      -390.2498378801       292.4838686061      -407.5895402335 
  107000       300.3792957267     11575.1148148080         0.7676477967       354.5983381620      -541.6706589755       266.3914427582       315.3480560183         6.7856246752      2381.7755028529     -3097.7113372747      -414.2599480053       -93.6003125059     -2655.0294811869 
  108000       308.0269281506     11668.3926652525         0.7615111728       385.1902711100      -533.8976617551       273.2911885262       336.7742828097        19.6069984367      2313.2915642764     -3097.0605104307      -379.8011853734       411.0815616457       152.1481840106 
  109000       295.6243013036     11473.6817656721         0.7744341847       283.8911730763      -598.1899151619       278.4023774746       317.8193254307         6.7715701360      2298.3342110223     -3098.0953923236      -401.4220069019       266.0576762641      -106.5756080127 
  110000       319.0276069094     11155.2082200640         0.7965437496       392.8447925160      -559.0668650839       254.0603264561       330.7750613514        13.9432611394      2341.9158210553     -3097.7032331504      -402.0581019357       518.2369022223       770.7555113676 
Loop time of 59.8479 on 64 procs for 50000 steps with 1002 atoms

Performance: 72.183 ns/day, 0.332 hours/ns, 835.451 timesteps/s
99.3% CPU use with 64 MPI tasks x no OpenMP threads

MPI task timing breakdown:
Section |  min time  |  avg time  |  max time  |%varavg| %total
---------------------------------------------------------------
Pair    | 6.7703     | 10.061     | 13.747     |  65.0 | 16.81
Bond    | 0.23649    | 0.27273    | 0.29923    |   2.6 |  0.46
Kspace  | 8.256      | 11.953     | 15.261     |  59.7 | 19.97
Neigh   | 20.383     | 20.662     | 20.851     |   3.1 | 34.52
Comm    | 15.029     | 15.248     | 15.542     |   3.9 | 25.48
Output  | 0.028327   | 0.028358   | 0.029135   |   0.1 |  0.05
Modify  | 1.0791     | 1.1289     | 1.1677     |   1.8 |  1.89
Other   |            | 0.4939     |            |       |  0.83

Nlocal:    15.6562 ave 20 max 8 min
Histogram: 4 1 2 4 3 15 7 8 8 12
Nghost:    4772.06 ave 4890 max 4663 min
Histogram: 3 15 9 5 2 0 8 10 8 4
Neighs:    12058.4 ave 20625 max 5871 min
Histogram: 6 6 10 14 1 9 11 4 1 2

Total # of neighbors = 771739
Ave neighs/atom = 770.199
Ave special neighs/atom = 5
Neighbor list builds = 50000
Dangerous builds not checked
unfix anneal
undump anneal

# RETURN TO LESS FREQUENT NEIGHBOR BUILDS
neigh_modify every 1 delay 10 check yes one 10000 # More relaxed rebuild criteria can be used

#===========================================================
# RUN EQUILIBRIUM SIM
#===========================================================

# UPDATE RUN PARAMETERS AND CREATE FIX
fix equil all npt temp ${FINAL_TEMP} ${FINAL_TEMP} 100.0 iso ${pressure} ${pressure} 1000.0 # NPT, nose-hoover 100 fs T relaxation
fix equil all npt temp 298.0 ${FINAL_TEMP} 100.0 iso ${pressure} ${pressure} 1000.0 
fix equil all npt temp 298.0 298.0 100.0 iso ${pressure} ${pressure} 1000.0 
fix equil all npt temp 298.0 298.0 100.0 iso 1.0 ${pressure} 1000.0 
fix equil all npt temp 298.0 298.0 100.0 iso 1.0 1.0 1000.0 

# CREATE COORDINATE DUMPS FOR EQUILIBRIUM
dump equil all custom ${coords_freq} equil.lammpstrj id type x y z mol
dump equil all custom 1000 equil.lammpstrj id type x y z mol
dump_modify equil sort id format float %20.10g

# RUN EQUIL
run		${nSteps_equil}
run		100000
PPPM initialization ...
WARNING: Using 12-bit tables for long-range coulomb (../kspace.cpp:321)
  G vector (1/distance) = 0.186545
  grid = 8 8 8
  stencil order = 5
  estimated absolute RMS force accuracy = 0.00728317
  estimated relative force accuracy = 2.1933e-05
  using double precision FFTs
  3d grid and FFT values/proc = 343 8
Per MPI rank memory allocation (min/avg/max) = 11.04 | 11.05 | 11.05 Mbytes
Step Temp Volume Density TotEng PotEng E_bond E_angle E_dihed E_coul E_long E_vdwl Enthalpy Press 
  110000       319.0276069094     11155.2082200640         0.7965437496       392.8428804183      -559.0687771816       254.0603264561       330.7750613514        13.9432611394      2348.0428987978     -3103.8322229906      -402.0581019357       518.2274559267       770.7092004432 
  111000       295.8509652541     11504.9993043893         0.7723261122       306.4224179348      -576.3349881274       245.9705390598       330.1179806738        14.9165554911      2319.2642768207     -3101.2897940625      -385.3145461104       457.3726932754       899.6455236610 
  112000       301.0982507281     11458.3684301245         0.7754691637       402.2462974828      -496.1679110167       274.3779429499       344.0403155815        22.1719045292      2349.8439399258     -3103.5775069992      -383.0245070040       682.9262680112      1679.6266256180 
  113000       308.6267599186     11755.0080034409         0.7559000709       368.1176900343      -552.7600153777       263.4385870116       341.4548003625         7.0281720573      2322.4548546842     -3104.2868489185      -382.8495805747      -103.6473099629     -2751.8635710681 
  114000       310.5942753594     10965.9628150307         0.8102901253       314.8040846554      -611.9442753460       249.7188894594       301.6725264986        10.8197333378      2357.3486239641     -3102.3326972888      -429.1713513170       438.2160084668       771.6750595078 
  115000       289.2107175771     11382.5902611638         0.7806317525       279.9138524327      -583.0304433024       251.1434012794       317.7404844065        17.9912587978      2321.0938585465     -3102.7393630640      -388.2600832687        51.8347061086     -1373.9425912005 
  116000       298.6348474179     11243.6468060077         0.7902784156       313.8329354498      -577.2309927682       256.1551497635       307.9398017243        13.9450067199      2354.1922854157     -3103.3960049269      -406.0672314647       554.7177629686      1469.0154453879 
  117000       298.9975433951     11184.0321998311         0.7944908620       345.9292746912      -546.2168624685       261.5226612234       345.6513234610        10.3670573280      2347.5366562841     -3102.5562965011      -408.7382642639       586.5489548763      1475.2201883272 
  118000       292.8532398705     11490.2495958993         0.7733175254       328.6045212824      -545.2082991793       263.4107385589       329.4288830601        14.2621374097      2359.5610452626     -3103.8550145816      -408.0160888890       219.7054360243      -649.8586134950 
  119000       309.9281357074     11541.8091582695         0.7698629618       365.6326659222      -559.1280726739       245.4517185557       334.1895133944        13.6262172849      2360.2948238308     -3103.4372600151      -409.2530857244       415.9729828324       299.0653972697 
  120000       308.8773052478     11257.4694485704         0.7893080611       318.1393047213      -603.4859755541       232.7198030069       325.3988307681        10.8754327259      2333.5510370687     -3103.8212876999      -402.2097914238       331.4123051831        80.8448655467 
  121000       302.1896176537     11040.9394333189         0.8047876213       345.0869576478      -556.5836615092       272.2336303678       319.6623027188         5.3587783256      2339.6874759392     -3102.3314471689      -391.1944016917       631.5573770552      1779.0897886706 
  122000       285.5844056650     11510.4944646078         0.7719574003       265.0059118791      -587.1182275170       252.1879382540       323.6846421972         5.2640352992      2334.2902695431     -3104.0267024724      -398.5184103380       225.6471781544      -234.4613427520 
  123000       306.1544263558     11198.7868714194         0.7934441012       308.4142975617      -605.0864815625       248.3684821089       318.0779044404        16.6756164780      2322.8762084315     -3102.2561360423      -408.8285569790       349.8592301760       253.7608199685 
  124000       294.3859510203     11428.9151071850         0.7774676162       251.9861420412      -626.3999679405       267.8369441635       283.6293632167         0.7483579955      2307.4434762306     -3103.1069181903      -382.9511913565       663.0428540929      2466.1577197980 
  125000       301.3274970220     11465.0926078503         0.7750143577       304.2331110693      -594.8651204267       256.7011512437       321.4173137308         9.3684224985      2296.7605912048     -3103.3565263154      -375.7560727890       174.1601343839      -777.9176453877 
  126000       300.3399813650     11394.4525678690         0.7798190682       335.5168225113      -560.6348687931       271.5984538163       322.0647347997         9.3085217999      2327.0653865123     -3103.5802560404      -387.0917096808       342.4425848869        41.6771710560 
  127000       305.0180812478     11631.4205444069         0.7639317442       340.7457200301      -569.3644429471       263.7536819280       319.1962516964        11.2616034988      2333.4537405402     -3102.9454800453      -394.0842405653       130.0101717144     -1242.3076336202 
  128000       306.8065144053     11348.1119820288         0.7830034985       324.6498600795      -590.7966134067       261.0249372216       316.1232767990        15.8803638636      2321.4414936650     -3104.6890642848      -400.5776206711       621.5075681838      1793.6959520208 
  129000       313.9055656883     11396.9576919694         0.7796476589       378.7945098722      -557.8340479473       277.2369304607       322.4686321618        13.8430492303      2344.3831749710     -3103.7266020425      -412.0392327286       284.0665127857      -569.9195164090 
  130000       293.7266189950     11199.3746667358         0.7934024575       322.6190248564      -553.7997762545       279.5723380104       324.9222605493        16.2782349415      2360.7666750503     -3104.0367522037      -431.3025326022      -191.8619567690     -3149.9210007209 
  131000       287.2399290616     11095.3736461698         0.8008393108       288.5158240451      -568.5480509304       267.1973436783       323.5864845653         8.6289340931      2339.8101982419     -3101.7431712853      -406.0278402238       447.1251961457       980.1917083557 
  132000       294.3284424268     11325.9475420174         0.7845358060       323.6085790287      -554.6059373371       281.4068117390       319.2650214778        13.8193827677      2314.6249386152     -3103.2237167650      -380.4983751717       307.4373131378       -97.9024550988 
  133000       303.1216444955     11247.9240913765         0.7899778938       316.8638865504      -587.5877057787       275.2047051556       308.9521363747        12.2227668046      2328.3600529094     -3103.7165481042      -408.6108189188       209.0435250626      -657.2831779346 
  134000       283.2578917970     11018.8872427302         0.8063982495       276.2885635167      -568.8937450642       262.1885741459       334.1288023236        13.2680070543      2316.9118811992     -3104.0898521634      -391.3011576238       664.3902418610      2415.0820637960 
  135000       296.1470035756     11459.5814439462         0.7753870791       306.6161725389      -577.0245499612       269.7807608557       323.3282459169        13.6916390661      2299.5012594195     -3103.4762713033      -379.8501839161       316.7308846558        60.5213882746 
  136000       304.3369851334     10924.2564474646         0.8133836318       301.8563455276      -606.2215690887       242.5104666526       330.5321576901         6.3027942955      2301.3497617301     -3103.4440156440      -383.4727338130       295.7163426568       -38.5390316467 
  137000       282.3655902187     11260.5682822088         0.7890908488       269.7958533750      -572.7240139121       252.1712705744       329.8751755667        10.4421365673      2337.9822148289     -3103.8113541840      -399.3834572654      -194.3535542962     -2826.3217636614 
  138000       288.4734829966     11334.6735328246         0.7839318316       315.7204166034      -545.0241253288       268.5018274521       323.6939469701        18.3753554456      2336.4921829907     -3104.2349442172      -387.8524939702       288.3063373295      -165.8397975952 
  139000       292.2764422972     11622.0264399019         0.7645492315       314.7489314420      -557.3428456925       277.4017305194       324.6681132649        18.9469287021      2316.9919498559     -3103.5697953039      -391.7817727310       562.1142002484      1459.4222871383 
  140000       305.1664706910     11498.8074320776         0.7727419940       357.5201190674      -553.0328069740       267.1883060841       327.1814722919         3.7097277011      2354.1142240503     -3103.4834470922      -401.7430900092       421.8815441637       383.7929221843 
  141000       290.7812025131     11282.9972509086         0.7875222502       299.7601431713      -567.8701511617       292.7553073062       311.8679577614        12.6687991692      2323.5990343067     -3103.6276136178      -405.1336360876       412.5418074076       685.3905736012 
  142000       298.2362817210     11176.5683565224         0.7950214324       350.9253400053      -538.9493515290       278.9273430324       342.7142943344        11.0648095610      2331.8066461032     -3103.1404788689      -400.3219656910       117.5981280467     -1431.4659553828 
  143000       298.3019838474     11338.4234230171         0.7836725665       388.8467060289      -501.2240269097       277.4677681200       345.0626696944        14.2467824026      2370.7702595639     -3102.9281209915      -405.8433856991       496.6528948798       651.9512652604 
  144000       310.1858489065     11447.0314264042         0.7762371791       335.1640238101      -590.3656770741       258.1811780215       312.0064763026         4.7256818595      2343.3656659321     -3102.5931042180      -406.0515749718        -9.4510923233     -2064.2655216097 
  145000       307.5647903884     11107.3801352551         0.7999736459       359.3568083817      -558.3522020524       279.6677113154       329.2962341466        17.4966207063      2324.1557642454     -3103.5232664245      -405.4452660417        43.4986704041     -1949.8650106723 
  146000       297.0765081589     11200.8324346551         0.7932991977       364.4891155510      -521.9250542292       274.1857391133       350.9945770591        14.9129523055      2329.3307147867     -3103.5554498988      -387.7935875951       420.3646354170       342.0545621824 
  147000       296.9509172087     11743.8621941923         0.7566174770       317.8762860239      -568.1631466268       259.6884962224       330.7474620824        10.2447850698      2318.4178826013     -3103.2136887562      -384.0480838465       -56.5875128403     -2186.3666942287 
  148000       299.8335509244     11154.6823714273         0.7965812999       300.0831002215      -594.5575085631       242.7645433097       339.1426769756        11.4446349790      2335.3985050793     -3103.8634572583      -419.4444116485       182.6672413042      -721.7614158559 
  149000       307.4305735887     11822.3498187273         0.7515943547       371.4645360142      -545.8439995596       278.1178087766       311.7528078242        -0.1484925071      2344.9119885957     -3104.0109663238      -376.4671459250       342.9847731514      -165.1797002307 
  150000       290.2889710567     11463.6383545529         0.7751126744       296.2367530409      -569.9248255715       277.7314483063       315.5253744099         6.0518835112      2320.4168020085     -3104.5517118886      -385.0986219189       153.7453476760      -852.2957123043 
  151000       309.5458419268     11101.7750261552         0.8003775399       324.2077245984      -599.4123293093       261.2674454279       324.4003608501        10.6755004941      2320.9388438779     -3103.2337900119      -413.4606899473       616.4943612615      1805.2636947201 
  152000       292.8164957361     11539.1851626444         0.7700380277       299.5463649543      -574.1568186949       260.0233803012       316.5413578567         8.6717426245      2326.0252062070     -3103.0606267243      -382.3578789600       449.6788811564       892.1209366902 
  153000       286.6304448750     11527.5294038811         0.7708166314       307.2023821570      -548.0429194732       276.9117543147       307.2512200140        10.9878564261      2336.5392628792     -3103.4079272632      -376.3250858440       166.2939145143      -838.1562039723 
  154000       310.7919613254     11319.9750694802         0.7849497308       354.1457403552      -573.1924732245       278.0727777577       328.2454859199         8.4801673870      2323.4248002811     -3103.6750786657      -407.7406259044       253.0503116651      -612.3647151585 
  155000       307.2686430958     11218.0677192878         0.7920803837       320.9014785928      -595.9238902565       247.5363894946       323.5292441507        11.2550639440      2333.8453995712     -3103.1024578050      -408.9875296120       393.6274551155       444.5244104665 
  156000       299.4143108707     11426.7757535131         0.7776131759       316.1835605269      -577.2061236174       261.1028753349       329.9392613285        17.0943792678      2324.4378064776     -3102.1808374243      -407.5996086020       203.4576001380      -676.4323200129 
  157000       286.2624554216     11169.7101175054         0.7955095781       276.5578504626      -577.5894475999       273.2649786227       335.9078962605        10.2685364519      2302.8259678616     -3103.3477086758      -396.5091181209       710.7166992261      2665.2065098164 
  158000       296.9199700991     11277.6623021118         0.7878947911       320.3144462483      -565.6326466997       260.5869803812       318.1966620245         5.6089687121      2329.8166108966     -3103.1345098004      -376.7073589136       543.1920803508      1355.1005252657 
  159000       290.6418448391     11693.5293910345         0.7598742079       310.4186912572      -556.7957889219       263.5260823265       339.9149882626        10.8660804579      2303.7659879928     -3103.2913563917      -371.5775715700       405.3273699017       556.5246767491 
  160000       306.5428061025     11225.2649919869         0.7915725277       351.6814180187      -562.9782050439       266.2338449122       327.5076698983        12.2415453777      2310.5723269643     -3102.0182083888      -377.5153838077       513.7469283092       989.9610543466 
  161000       296.4494504031     11097.0833823675         0.8007159248       302.2190602522      -582.3241003275       249.1321289100       336.2985189064         8.4549141870      2305.8518909159     -3101.6804415947      -380.3811116521       363.0949735508       376.1497271615 
  162000       296.7414313771     11787.5500012178         0.7538132506       380.2369328322      -505.1774379089       257.3616272544       349.1623433514         7.7376553445      2387.6282553205     -3102.3768934412      -404.6904257384        37.6663259823     -1992.7400973789 
  163000       308.2127572296     11113.4306414556         0.7995381148       345.1480368487      -574.4943711239       265.3743974294       332.7868125060         7.8240467717      2336.9475774666     -3104.1366058492      -413.2905994484       465.4157507329       742.0360807353 
  164000       299.7521568499     11543.8470342346         0.7697270552       332.8929646922      -561.5047811967       254.0219136220       321.8872097088         8.8716041992      2357.5499815860     -3103.7861794655      -400.0493108472       333.0479472039         0.9205687797 
  165000       287.3909672180     11282.9215670904         0.7875275327       246.5776010659      -610.9369401800       252.7360020481       297.1835980665         7.7618223414      2340.1968573050     -3103.2972420714      -405.5179778696       252.4795962748        35.8675237087 
  166000       299.9094592279     11601.3521427636         0.7659117036       353.7286277186      -541.1384755683       253.3971336296       328.8454230120        19.9210444715      2351.7304344126     -3102.4744784410      -392.5580326529       505.1404090605       894.9013641842 
  167000       305.2489648915     11390.1881899785         0.7801110250       333.6872883290      -577.1117831539       251.3629782686       327.2995416168        12.6441567912      2341.2070889657     -3103.3083858031      -406.3171629932       365.9527211244       194.2364383423 
  168000       283.3045924241     11448.4599530645         0.7761403211       285.1024168467      -560.2192366385       259.0420031196       321.2616717986        10.0991386082      2342.0969960042     -3103.3140677760      -389.4049783930       286.4704038756         8.1933030903 
  169000       301.2820704169     11289.6571811647         0.7870576795       289.5391989231      -609.4234890836       255.4564615980       300.5086359041        10.8959295965      2337.2286738687     -3104.0089238137      -409.5042662373       639.5155562882      2125.6025516903 
  170000       299.7817125395     11301.2363221679         0.7862512676       314.2214604109      -580.2644734744       247.6923782885       321.7827845367         6.7885774207      2351.7901571248     -3103.2741374860      -405.0442333591       630.4009026461      1918.3673884531 
  171000       299.0268132821     11268.7890451092         0.7885151943       305.9643267614      -586.2691456195       264.3810675789       299.6450629481        10.5492739986      2325.2067390872     -3103.9443139451      -382.1069752872       588.0585308042      1716.4890011230 
  172000       275.0401276282     11214.0120890301         0.7923668454       254.1286954989      -566.5335234652       263.1429856724       308.9722344185        14.1527843885      2355.2609587304     -3104.0089935400      -404.0534931350       270.5195325708       100.2222674295 
  173000       289.3300380918     11074.2271083405         0.8023685352       297.8391874364      -565.4611357598       258.5418319427       308.0095420371        13.2947138830      2365.3108942936     -3103.3714560056      -407.2466619106       701.7798473096      2501.0838707380 
  174000       294.1046424553     11178.7861090744         0.7948637085       256.2804078802      -621.2663361763       261.0865092210       295.2703012378         6.3899993555      2328.2809781689     -3103.6837264789      -408.6103976805        57.1941909943     -1221.1546233211 
  175000       300.7497831699     11321.1433893825         0.7848687255       319.6226688322      -577.7517853521       263.7974579573       317.1573729738        23.4498488141      2312.2486054652     -3104.4350118825      -389.9700586800       538.2563938151      1324.1920424475 
  176000       297.8059454442     11355.6123679369         0.7824863244       296.3590870206      -592.2315710645       257.0561930515       312.3110369572        12.8136943194      2322.7780794485     -3103.2050319723      -393.9855428687      -112.1230983527     -2466.5315351787 
  177000       290.7961253015     11571.1167232188         0.7679130369       299.1514611260      -568.5233596864       257.8290142602       334.3846689588         8.0560073157      2313.1806210088     -3102.2745861720      -379.6990850578       352.8118836891       317.9822839398 
  178000       310.5251588833     10969.2837575754         0.8100448106       307.2034093790      -619.3387215126       252.3337641699       317.3999206688        20.6767108344      2303.6111832472     -3104.3243557767      -409.0359446562       490.2861899073      1144.4408178378 
  179000       287.0841702020     11328.8678111872         0.7843335743       318.8550670665      -537.7440560473       269.9274422617       339.4261574973        12.6608114777      2330.7809954126     -3101.4409072268      -389.0985554697       282.7048560092      -218.8005646662 
  180000       291.7896423839     11140.7654205368         0.7975763826       255.2807070374      -615.3585609649       252.2836513172       318.6645171693        16.1219742690      2304.9829101306     -3104.4314425153      -402.9801713356       567.8088740192      1923.5268174028 
  181000       295.7482189860     11377.2897290581         0.7809954387       305.4997399264      -576.9510927602       251.6456387430       321.3314728711        14.9035025996      2330.8178237697     -3103.9071559337      -391.7423748099       -21.4127488239     -1970.2294422603 
  182000       301.0082873210     11154.9479138550         0.7965623374       282.4910749793      -615.6547015285       255.7160318353       302.2737263883        17.8071500057      2308.5376634547     -3103.4162646653      -396.5730085472       158.1049817924      -764.5896084615 
  183000       295.1861078581     11506.3930008555         0.7722325652       327.1736602963      -553.5999503443       267.9277600109       332.0322681641         9.9494899347      2330.7755747793     -3102.9939253675      -391.2911178660       845.7226095880      3090.1151690372 
  184000       295.3782973132     11353.0773023783         0.7826610484       318.9093129359      -562.4377508444       250.4727742172       349.4563186322        11.0412201851      2320.4861047633     -3103.8984401668      -389.9957284755       500.8012054934      1098.5601913774 
  185000       289.1120124555     10826.4048272831         0.8207351864       226.6013687791      -636.0484115164       245.3790922326       311.5026158813         6.4034090889      2298.9851835952     -3103.4881755395      -394.8305367749       317.8569427295       577.9619518685 
  186000       302.8112158926     11314.6356031858         0.7853201548       300.8148270876      -602.7105112135       255.9800911632       324.2177296143         9.9514617264      2313.2277414337     -3102.6160309798      -403.4715041712       256.4681359020      -268.7477026868 
  187000       282.5798636394     11397.3828177289         0.7796185779       285.6810016293      -557.4782127320       277.0262573184       327.6394290378        13.1918100895      2335.6931203984     -3103.3025138137      -407.7263157623      -260.8378950745     -3287.9420752841 
  188000       302.1077197269     11301.5228223850         0.7862313357       318.0573314058      -583.3689214659       254.1707150822       330.5552200976         7.3952185416      2320.0885108018     -3102.5411101653      -393.0374758238       713.0309881900      2396.3777305131 
  189000       300.1451917851     11432.8955728963         0.7771969338       321.9895978534      -573.5808820828       266.4530412796       331.8904232883         8.4148028188      2311.6079285883     -3102.4992266560      -389.4478514018       424.3102054107       613.6644769739 
  190000       293.1219548752     10920.5170160417         0.8136621527       278.1992812087      -596.4153286278       272.5764104591       307.2739705386         8.5817932961      2320.8277490067     -3103.2158596439      -402.4593922845       -12.4772873092     -1825.1179455729 
  191000       297.1684370988     11357.1397866045         0.7823810881       277.0705557260      -609.6179107848       245.0667242581       312.0555961262         7.6381959381      2342.1779751802     -3102.6868897957      -413.8695124917       608.1859804455      1999.1001503608 
  192000       283.3734279273     10983.7703752968         0.8089764334       287.6773361081      -557.8497081225       267.5422506778       325.4950286420        22.5764562302      2312.1358303147     -3103.0814672022      -382.5178067850       242.0114152659      -285.0787757460 
  193000       286.8263451844     11219.9965182539         0.7919442193       265.0403006943      -590.7895264886       272.5643259897       321.1575308270         6.2701866570      2304.9922799617     -3103.8018591400      -391.9719907840       -17.1495170258     -1724.5378373089 
  194000       304.5587109404     11167.4328831324         0.7956717964       329.7796880485      -578.9598100043       256.5598252170       336.0148507674        12.1770630075      2327.8775880003     -3104.1960463050      -407.3930906915       300.6661049061      -178.7583835905 
  195000       292.0514191435     11565.7362318708         0.7682702774       265.9796427757      -605.4407123292       243.2741374705       335.1752221139        13.1526687717      2298.7372477586     -3103.5588610279      -392.2211274160       170.6311973198      -565.2810721732 
  196000       295.8991167701     10969.9850474843         0.8099930260       272.2744933714      -610.6265867440       266.8375561219       314.7349268585        14.2795706016      2294.8806177178     -3103.5519322539      -397.8073257899       564.0686417519      1823.8732481511 
  197000       289.7448462494     11309.4030133526         0.7856835036       276.6910100330      -587.8470139527       262.1926209697       314.7508468377        11.0539957477      2347.8191151592     -3103.8849175294      -419.7786751376       554.3110451242      1683.1981101014 
  198000       292.9906708951     11410.6341974684         0.7787131924       360.8398303039      -513.3830555927       314.7078077208       320.5093444228         4.5572863771      2343.7119029631     -3102.4348173665      -394.4345797100       127.7925431625     -1400.4202415743 
  199000       294.8280893955     11200.0821863920         0.7933523376       339.7962812313      -539.9090771929       292.8086403575       308.5935009960         9.6280813034      2371.0253586886     -3103.7724596248      -418.1921989136       290.4522475396      -302.0908350170 
  200000       287.9778845316     11333.1932436237         0.7840342252       299.4369788358      -559.8288009260       256.1565224628       334.2391768123        14.7886816434      2316.0300599100     -3103.0648285963      -377.9784131582       259.8151767656      -239.7209779271 
  201000       307.1394686270     11498.2133525294         0.7727819193       356.7428751477      -559.6970641020       269.6590261098       332.4236676424        14.0984638838      2303.5960570841     -3102.4671675118      -377.0071113103       825.0305705400      2792.5856002651 
  202000       300.8017572389     11204.9815541228         0.7930054450       282.2532462993      -615.2762876370       247.9069667955       313.1236818394         7.0489480432      2314.2684795776     -3101.6028114389      -396.0215524538       109.1283925854     -1059.4302863357 
  203000       287.0946569404     11225.9078126481         0.7915272005       315.5722741902      -541.0581391577       262.8983159403       351.3684391533        17.4505143021      2306.2190245301     -3104.5391542886      -374.4552787949        83.6261856894     -1416.7384873794 
  204000       295.1748589109     11373.8374878164         0.7812324902       305.3942598038      -575.3457863312       259.2678913556       318.7949607772        12.4592179405      2337.3433946638     -3103.3851272231      -399.8261238452       208.2632624693      -585.5647701781 
  205000       300.2113827665     11281.3406262035         0.7876378950       376.9204008804      -518.8475791011       260.8577632462       364.9867308843        12.6555378141      2347.7277026781     -3103.0502259867      -402.0250877370       498.1408265164       736.7823317186 
  206000       281.8641030168     11256.3354018527         0.7893875819       246.2822408494      -594.7412935082       245.0273005127       328.3625217544         7.5177011250      2311.6319157160     -3103.6997436792      -383.5809889371       444.0261119564      1204.5646592531 
  207000       299.8641006037     11572.6721840959         0.7678098232       333.7837299946      -560.9480326438       266.6176446620       310.4695223685        17.4712730421      2340.5185562584     -3103.0687284552      -392.9563005196       132.9100680660     -1190.1822150129 
  208000       293.8766864893     11317.5259748296         0.7851195927       283.1492925377      -593.7172785908       268.8430179852       306.1356785465        11.7387535992      2293.5332474115     -3103.6724500332      -370.2955261000       270.5021847905       -76.6238252500 
  209000       295.3423116631     11537.7757316610         0.7701320939       308.6121243189      -572.6275658074       280.3566556255       304.1227453555        17.2384432536      2339.7066241993     -3103.2970983833      -410.7549358580      -261.3115683955     -3387.0275509986 
  210000       302.9132890995     11540.7517762495         0.7699334979       373.4204436642      -530.4094597385       274.4143385825       339.6271013953         8.3008929172      2358.6765772297     -3102.9909858707      -408.4373839925       367.1945484284       -36.9906377460 
Loop time of 61.6935 on 64 procs for 100000 steps with 1002 atoms

Performance: 140.047 ns/day, 0.171 hours/ns, 1620.916 timesteps/s
99.3% CPU use with 64 MPI tasks x no OpenMP threads

MPI task timing breakdown:
Section |  min time  |  avg time  |  max time  |%varavg| %total
---------------------------------------------------------------
Pair    | 12.693     | 19.348     | 26.896     |  94.3 | 31.36
Bond    | 0.49896    | 0.53095    | 0.57178    |   2.0 |  0.86
Kspace  | 16.406     | 24.007     | 30.679     |  84.5 | 38.91
Neigh   | 1.6088     | 1.6301     | 1.647      |   0.9 |  2.64
Comm    | 13.013     | 13.133     | 13.291     |   1.7 | 21.29
Output  | 0.048919   | 0.048966   | 0.049611   |   0.0 |  0.08
Modify  | 2.1419     | 2.2179     | 2.29       |   2.1 |  3.60
Other   |            | 0.7785     |            |       |  1.26

Nlocal:    15.6562 ave 22 max 6 min
Histogram: 1 1 2 7 2 21 11 6 8 5
Nghost:    4617.33 ave 4775 max 4473 min
Histogram: 2 4 9 10 12 8 7 7 3 2
Neighs:    11648.6 ave 22058 max 3930 min
Histogram: 2 8 10 12 10 9 6 4 2 1

Total # of neighbors = 745509
Ave neighs/atom = 744.021
Ave special neighs/atom = 5
Neighbor list builds = 3764
Dangerous builds = 0
unfix equil
undump equil

# WRITE RESTART FILES, CLEANUP, AND EXIT
write_restart   md-19.end.restart
PPPM initialization ...
WARNING: Using 12-bit tables for long-range coulomb (../kspace.cpp:321)
  G vector (1/distance) = 0.18585
  grid = 8 8 8
  stencil order = 5
  estimated absolute RMS force accuracy = 0.00753302
  estimated relative force accuracy = 2.26855e-05
  using double precision FFTs
  3d grid and FFT values/proc = 343 8
write_data      md-19.end.data pair ii
PPPM initialization ...
WARNING: Using 12-bit tables for long-range coulomb (../kspace.cpp:321)
  G vector (1/distance) = 0.18585
  grid = 8 8 8
  stencil order = 5
  estimated absolute RMS force accuracy = 0.00753302
  estimated relative force accuracy = 2.26855e-05
  using double precision FFTs
  3d grid and FFT values/proc = 343 8
unfix		averages
Total wall time: 0:03:16
