
#===========================================================
# GENERAL PROCEDURES
#===========================================================
units		real	# g/mol, angstroms, fs, kcal/mol, K, atm, charge*angstrom
dimension	3	# 3 dimensional simulation
newton		on	# use Newton's 3rd law
boundary	p p p	# periodic boundary conditions
atom_style	full    # molecular + charge

#===========================================================
# FORCE FIELD DEFINITION
#===========================================================
special_bonds  lj   0.0 0.0 0.0  coul 0.0 0.0 0.0     # NO     1-4 LJ/COUL interactions
pair_style     hybrid lj/cut/coul/long 14.0 14.0 # outer_LJ outer_Coul (cutoff values, see LAMMPS Doc)
kspace_style   pppm 0.0001          # long-range electrostatics sum method
bond_style     harmonic             # parameters needed: k_bond, r0
angle_style    harmonic             # parameters needed: k_theta, theta0
dihedral_style hybrid opls            # parameters needed: V1, V2, V3, V4
pair_modify    shift yes mix arithmetic       # using Lorenz-Berthelot mixing rules

#===========================================================
# SETUP SIMULATIONS
#===========================================================

# READ IN COEFFICIENTS/COORDINATES/TOPOLOGY
read_data ${data_name}
read_data md-6.data
  orthogonal box = (-11.2151 -11.2151 -11.2151) to (11.2151 11.2151 11.2151)
  4 by 4 by 4 MPI processor grid
  reading atoms ...
  1002 atoms
  reading velocities ...
  1002 velocities
  scanning bonds ...
  1 = max bonds/atom
  scanning angles ...
  6 = max angles/atom
  scanning dihedrals ...
  3 = max dihedrals/atom
  reading bonds ...
  835 bonds
  reading angles ...
  1169 angles
  reading dihedrals ...
  501 dihedrals
  4 = max # of 1-2 neighbors
  3 = max # of 1-3 neighbors
  4 = max # of 1-4 neighbors
  5 = max # of special neighbors
include ${settings_name}
include md-6.in.settings
     # Non-bonded interactions (pair-wise)
     pair_coeff           1          1          lj/cut/coul/long     0.024327             2.432354
     pair_coeff           1          2          lj/cut/coul/long     0.004430             2.289075
     pair_coeff           1          3          lj/cut/coul/long     0.043609             3.102954
     pair_coeff           1          4          lj/cut/coul/long     0.059084             2.649092
     pair_coeff           2          2          lj/cut/coul/long     0.001000             2.078552
     pair_coeff           2          3          lj/cut/coul/long     0.005938             3.065192
     pair_coeff           2          4          lj/cut/coul/long     0.009149             2.561375
     pair_coeff           3          3          lj/cut/coul/long     0.190576             3.412102
     pair_coeff           3          4          lj/cut/coul/long     0.153011             3.178464
     pair_coeff           4          4          lj/cut/coul/long     0.170961             2.802159

     # Stretching interactions
     bond_coeff           1           366.904251           1.096103
     bond_coeff           2           612.219900           0.957501
     bond_coeff           3           368.709924           1.411527

     # Bending interactions
     angle_coeff          1           40.926667            108.205025
     angle_coeff          2           61.328715            112.232133
     angle_coeff          3           49.873049            108.741688

     # Dihedral interactions
     dihedral_coeff       1          opls                  0.105414            -0.205941             0.372587            -0.070860

# SET RUN PARAMETERS
timestep	1.0		# fs
run_style	verlet 		# Velocity-Verlet integrator
neigh_modify every 1 delay 0 check no one 10000 # More relaxed rebuild criteria can be used

#===========================================================
# RUN CONSTRAINED RELAXATION
#===========================================================

# SET OUTPUTS
thermo_style    custom step temp vol density etotal pe ebond eangle edihed ecoul elong evdwl enthalpy press
thermo_modify   format float %20.10f
thermo ${thermo_freq}
thermo 1000

# DECLARE RELEVANT OUTPUT VARIABLES
variable        my_step equal   step
variable        my_temp equal   temp
variable        my_rho  equal   density
variable        my_pe   equal   pe
variable        my_ebon equal   ebond
variable        my_eang equal   eangle
variable        my_edih equal   edihed
variable        my_evdw equal   evdwl
variable        my_eel  equal   (ecoul+elong)
variable        my_ent  equal   enthalpy
variable        my_P    equal   press
variable        my_vol  equal   vol

fix  averages all ave/time ${dump4avg} $(v_avg_freq/v_dump4avg) ${avg_freq} v_my_temp v_my_rho v_my_vol v_my_pe v_my_edih v_my_evdw v_my_eel v_my_ent v_my_P file thermo.avg
fix  averages all ave/time 100 $(v_avg_freq/v_dump4avg) ${avg_freq} v_my_temp v_my_rho v_my_vol v_my_pe v_my_edih v_my_evdw v_my_eel v_my_ent v_my_P file thermo.avg
fix  averages all ave/time 100 10 ${avg_freq} v_my_temp v_my_rho v_my_vol v_my_pe v_my_edih v_my_evdw v_my_eel v_my_ent v_my_P file thermo.avg
fix  averages all ave/time 100 10 1000 v_my_temp v_my_rho v_my_vol v_my_pe v_my_edih v_my_evdw v_my_eel v_my_ent v_my_P file thermo.avg

# INITIALIZE VELOCITIES AND CREATE THE CONSTRAINED RELAXATION FIX
velocity        all create ${ANNEAL_TEMP} ${vseed} mom yes rot yes     # DRAW VELOCITIES
velocity        all create 100.0 ${vseed} mom yes rot yes     
velocity        all create 100.0 76692 mom yes rot yes     

fix relax all nve/limit 0.01
run             10000
PPPM initialization ...
WARNING: Using 12-bit tables for long-range coulomb (../kspace.cpp:321)
  G vector (1/distance) = 0.186309
  grid = 8 8 8
  stencil order = 5
  estimated absolute RMS force accuracy = 0.00736732
  estimated relative force accuracy = 2.21865e-05
  using double precision FFTs
  3d grid and FFT values/proc = 343 8
Neighbor list info ...
  update every 1 steps, delay 0 steps, check no
  max neighbors/atom: 10000, page size: 100000
  master list distance cutoff = 16
  ghost atom cutoff = 16
  binsize = 8, bins = 3 3 3
  1 neighbor lists, perpetual/occasional/extra = 1 0 0
  (1) pair lj/cut/coul/long, perpetual
      attributes: half, newton on
      pair build: half/bin/newton
      stencil: half/bin/3d/newton
      bin: standard
Per MPI rank memory allocation (min/avg/max) = 8.556 | 8.655 | 9.16 Mbytes
Step Temp Volume Density TotEng PotEng E_bond E_angle E_dihed E_coul E_long E_vdwl Enthalpy Press 
       0       100.0000000000     11285.0032809975         0.7873822597      -255.7690002697      -554.1480862747       265.1085388371       328.6576854461         7.7898896856      2442.0290970041     -3100.0187927709      -497.7145044767      -954.6608896572     -4246.5126432305 
    1000        24.1063661592     11285.0032809975         0.7873822597     -1415.6165258086     -1487.5448808233         7.9408013635        17.9400271496       -34.7618793635      2073.3291902720     -3101.5869240000      -450.4060962450     -1872.7608480705     -2777.6386788062 
    2000        19.3777772785     11285.0032809975         0.7873822597     -1463.5078808554     -1521.3271155872         7.9312415308        18.0556149169       -35.2930258125      2053.7819999521     -3101.6567648271      -464.1461813472     -1973.3125390912     -3097.6063102887 
    3000        17.0741642573     11285.0032809975         0.7873822597     -1486.8832476077     -1537.8289828617         7.3554820033        17.8140724998       -37.1017144799      2040.3423427451     -3101.6733803078      -464.5657853222     -1872.3117206016     -2341.8885073400 
    4000        16.8920566075     11285.0032809975         0.7873822597     -1501.5431015101     -1551.9454656231         7.5412101998        18.0775715682       -36.3210541963      2036.9490908141     -3101.7325680597      -476.4597159491     -1868.2875251907     -2228.3630067005 
    5000        15.4190135386     11285.0032809975         0.7873822597     -1517.7050700127     -1563.7121816802         7.5871650363        17.5327337911       -34.9552695363      2025.9643531559     -3101.2031598827      -478.6380042445     -1891.3737475022     -2270.4352238646 
    6000        13.1645125003     11285.0032809975         0.7873822597     -1529.8396351797     -1569.1197872551         7.4274333716        17.6972517106       -38.0818474094      2025.4836391013     -3101.7246641310      -479.9215998982     -1897.2445945174     -2232.3764643774 
    7000        12.6152039500     11285.0032809975         0.7873822597     -1535.2268445337     -1572.8679747772         7.5806232240        16.6569941073       -38.1825031761      2026.6099633756     -3101.4373159416      -484.0957363665     -1971.7809192770     -2652.5309937076 
    8000        13.1246570669     11285.0032809975         0.7873822597     -1540.6422224561     -1579.8034542536         7.8647150862        16.9400382415       -37.6421563683      2017.8581402129     -3101.4336274929      -483.3905639331     -1901.2032608392     -2190.7923548692 
    9000        11.8312826134     11285.0032809975         0.7873822597     -1545.3557417469     -1580.6578146715         7.6102832296        16.8084182059       -36.8781846818      2017.2414767483     -3101.5969084801      -483.8428996934     -1931.4202193004     -2345.7529124713 
   10000        11.7541616908     11285.0032809975         0.7873822597     -1550.4069564168     -1585.4789166372         7.5138188954        17.6709428668       -36.2831875541      2013.6725899319     -3100.9511878473      -487.1018929299     -1884.4006813782     -2029.3676280195 
Loop time of 11.5218 on 64 procs for 10000 steps with 1002 atoms

Performance: 74.989 ns/day, 0.320 hours/ns, 867.923 timesteps/s
99.0% CPU use with 64 MPI tasks x no OpenMP threads

MPI task timing breakdown:
Section |  min time  |  avg time  |  max time  |%varavg| %total
---------------------------------------------------------------
Pair    | 0.68134    | 1.7711     | 2.9948     |  44.5 | 15.37
Bond    | 0.019075   | 0.044483   | 0.073605   |   5.1 |  0.39
Kspace  | 1.1103     | 2.332      | 3.4281     |  38.7 | 20.24
Neigh   | 3.9026     | 4.1033     | 4.1909     |   3.2 | 35.61
Comm    | 3.0746     | 3.1709     | 3.3673     |   3.7 | 27.52
Output  | 0.0013547  | 0.0018621  | 0.0018809  |   0.1 |  0.02
Modify  | 0.0082836  | 0.0094575  | 0.010363   |   0.5 |  0.08
Other   |            | 0.08865    |            |       |  0.77

Nlocal:    15.6562 ave 24 max 3 min
Histogram: 2 1 7 5 7 2 11 15 7 7
Nghost:    4713.5 ave 4990 max 4404 min
Histogram: 4 2 8 5 8 9 13 8 3 4
Neighs:    11889 ave 22704 max 2489 min
Histogram: 2 8 9 8 9 8 7 9 1 3

Total # of neighbors = 760897
Ave neighs/atom = 759.378
Ave special neighs/atom = 5
Neighbor list builds = 10000
Dangerous builds not checked
unfix relax

#===========================================================
# RUN RAMPED ANNEAL
#===========================================================

# REINITIALIZE THE VELOCITIES AND CREATE THE ANNEALING FIX
velocity        all create ${ANNEAL_TEMP} ${vseed} mom yes rot yes     # DRAW VELOCITIES
velocity        all create 100.0 ${vseed} mom yes rot yes     
velocity        all create 100.0 76692 mom yes rot yes     

fix mom all momentum 1000 linear 1 1 1 angular # Zero out system linear and angular momentum every ps
fix anneal all npt temp ${ANNEAL_TEMP} ${FINAL_TEMP} 100.0 iso ${pressure} ${pressure} 1000.0 # NPT, nose-hoover 100 fs T relaxation
fix anneal all npt temp 100.0 ${FINAL_TEMP} 100.0 iso ${pressure} ${pressure} 1000.0 
fix anneal all npt temp 100.0 298.0 100.0 iso ${pressure} ${pressure} 1000.0 
fix anneal all npt temp 100.0 298.0 100.0 iso 1.0 ${pressure} 1000.0 
fix anneal all npt temp 100.0 298.0 100.0 iso 1.0 1.0 1000.0 

# CREATE COORDINATE DUMPS FOR ANNEAL
dump anneal all custom ${coords_freq} anneal.lammpstrj id type x y z mol
dump anneal all custom 1000 anneal.lammpstrj id type x y z mol
dump_modify anneal sort id format float %20.10g

# RUN RAMPED ANNEAL
run ${nSteps_ramp}
run 50000
PPPM initialization ...
WARNING: Using 12-bit tables for long-range coulomb (../kspace.cpp:321)
  G vector (1/distance) = 0.186309
  grid = 8 8 8
  stencil order = 5
  estimated absolute RMS force accuracy = 0.00736732
  estimated relative force accuracy = 2.21865e-05
  using double precision FFTs
  3d grid and FFT values/proc = 343 8
Per MPI rank memory allocation (min/avg/max) = 9.829 | 10.35 | 10.55 Mbytes
Step Temp Volume Density TotEng PotEng E_bond E_angle E_dihed E_coul E_long E_vdwl Enthalpy Press 
   10000       100.0000000000     11285.0032809975         0.7873822597     -1287.0998306322     -1585.4789166372         7.5138188954        17.6709428668       -36.2831875541      2013.6725899319     -3100.9511878473      -487.1018929299     -1445.5554717372      -962.7867965866 
   11000        92.0218680164      9816.8190398437         0.9051416093     -1044.9048902126     -1319.4788989247       103.5831775001       105.3627229943       -15.0040879751      2102.1110307154     -3101.1734896444      -514.3582525151     -1287.6338577737     -1695.4107550218 
   12000       106.4863686693      9599.0263494324         0.9256784032     -1033.3804267731     -1351.1134803285        90.3565353211       106.5307588225       -14.6783642096      2091.0105524226     -3101.7232781954      -522.6096844898     -1061.5531396844      -201.2452305322 
   13000       111.5883214415      9544.9115538311         0.9309265291     -1000.7054376535     -1333.6616512590        90.0197329452       112.2550257517       -18.0103220295      2114.2637258889     -3100.9978906122      -531.1919232031     -1005.5574087817       -34.8554272096 
   14000       117.1390889847      9500.3015949190         0.9352978213      -985.2991192207     -1334.8176622877        88.7243908243       118.3888631814       -18.0786402755      2127.6725230141     -3101.6314944338      -549.8933045981     -1107.8837946681      -884.7547432827 
   15000       121.6735425113      9551.1391548926         0.9303195398      -955.6483475205     -1318.6967515757       105.5708126117       117.8680753722       -19.4528661151      2101.7067495954     -3101.7904849231      -522.5990381168      -875.6827381608       574.0796987021 
   16000       121.2399294251      9363.8956675635         0.9489225104      -956.9232921345     -1318.6778854262        95.6563607030       123.4367467708       -11.5489320133      2115.3856233057     -3102.1736266686      -539.4340575237     -1077.3694973675      -881.9839176762 
   17000       129.2476127234      9291.7193047109         0.9562935655      -933.8498743531     -1319.4977198806        94.8250292494       125.9988360514       -10.5600126418      2126.8439160106     -3101.8568568785      -554.7486316717     -1013.0188567424      -584.2289743772 
   18000       129.2000987425      9413.9847163455         0.9438735723      -903.8085596776     -1289.3146334229       103.1230429591       137.7036336531       -12.3969519348      2131.2366863905     -3102.1863089172      -546.7947355736      -929.9958569363      -190.7397898203 
   19000       136.3576431075      9474.1727989766         0.9378772767      -874.0271655459     -1280.8898547481       107.1330775323       149.4409601787        -7.6503400594      2115.2830029219     -3101.4812747048      -543.6152806167     -1235.6166178371     -2616.9689059296 
   20000       138.5404428890      9483.2476155877         0.9369797926      -865.3672440944     -1278.7429513337       101.8831711478       145.0457982331        -5.6410164591      2112.2037453171     -3101.4915989262      -530.7430506466      -849.3626233343       115.7210612528 
   21000       138.0894028534      9407.1403562758         0.9445603071      -868.5777402420     -1280.6076383456       110.4024421227       144.2640853027        -5.4223338059      2103.1666958920     -3100.8005156223      -532.2180122347      -876.8687174243       -60.4327290398 
   22000       148.8990058036      9570.2914041328         0.9284577667      -796.1488196524     -1240.4323122396       121.7934134659       147.2927211034        -8.9690649480      2122.7154220941     -3100.7154634705      -522.5493404845      -797.3144137777        -8.3511502762 
   23000       152.0263488885      9606.4552904854         0.9249625502      -776.8471846331     -1230.4620149335       122.6790619698       152.5147661520        -2.2768499192      2118.8425899903     -3101.0059385769      -521.2156445494      -808.9165547870      -228.9029423451 
   24000       153.5204551793      9430.6264976845         0.9422079631      -770.5982097843     -1228.6711407790       121.2090187941       166.0043786226        -6.1121475902      2126.8272670412     -3101.8472087099      -534.7524489369      -653.4137202130       852.0276690488 
   25000       158.5988372018      9634.7174475363         0.9222492960      -726.1993111647     -1199.4250720218       131.1747566769       174.5727790728        -4.9870000442      2121.0895744336     -3101.3414672220      -519.9337149390      -655.7700294355       501.2315352324 
   26000       163.2373528307      9405.0774012520         0.9447674915      -714.0299766568     -1201.0960980517       129.6732942183       175.9393405517        -5.5340903256      2140.0992343777     -3101.3742249289      -539.8996519450      -355.8922703958      2611.0295346196 
   27000       162.5447934728      9547.7976561569         0.9306451292      -705.0848874513     -1190.0845565640       135.1488751021       177.3543164583         0.3348073812      2132.9030137292     -3101.4139361402      -534.4116330947     -1127.8123991075     -3035.8577438499 
   28000       168.2903854448      9578.1535905649         0.9276956461      -678.7766960465     -1180.9200099710       140.6939111025       183.1651827669        -8.8037457636      2132.9507367231     -3101.0040372252      -527.9220575747      -542.4873122007       975.6731235590 
   29000       174.8572634204      9650.3969139798         0.9207508730      -619.9136079026     -1141.6511123098       153.4741716680       181.8789508645         4.1020119406      2142.2915403605     -3101.4059842280      -521.9918029154      -621.3680231048       -10.3339734162 
   30000       182.1005296171      9657.8184931113         0.9200433193      -599.9308465536     -1143.2807424352       147.9517831467       196.2529031842        -1.5321329862      2152.9376976131     -3101.3708265284      -537.5201668646      -676.2879979703      -542.1192011728 
   31000       190.9993073511      9545.1929062625         0.9308990893      -564.5443184105     -1134.4463059607       156.9712764426       192.3054293974        -3.5480770819      2134.5527827495     -3099.9528663944      -514.7748510738      -852.3351566822     -2067.3612179026 
   32000       182.6908834199      9647.4462739743         0.9210324817      -570.4123143736     -1115.5237025364       157.7628029809       198.3232816493         4.2742202451      2167.1276917503     -3100.6150456417      -542.3966535202      -459.8363859967       785.9091339445 
   33000       193.2632238164      9561.7256421852         0.9292895149      -515.6144685707     -1092.2715093779       162.5627233606       205.8190557835        -1.1547235846      2160.1682950037     -3100.8301941031      -518.8366658380      -819.2269964920     -2177.2460947698 
   34000       196.0140468196      9624.2438846256         0.9232529319      -524.6299946583     -1109.4949159999       158.3653441194       189.3308030037        -4.1803676443      2172.3243073746     -3100.4578532646      -524.8771495887      -446.1939364066       558.8216859052 
   35000       205.4965606506      9825.8033400557         0.9043139859      -445.2007831151     -1058.3595425561       165.0530808877       226.8268594225         1.2761377776      2147.4332678897     -3100.9156039088      -498.0332846249      -580.8321850552      -946.4905752133 
   36000       189.7520759192      9879.2150528781         0.8994248365      -489.7556949024     -1055.9362047056       164.7302384242       207.1843946906         3.8054615295      2179.3850388316     -3101.0937057406      -509.9476324409      -510.4244098729      -143.4548208564 
   37000       202.9712217709      9818.4843674833         0.9049880869      -446.5469295697     -1052.1706059428       169.8312553189       216.2852681253         3.9858244666      2163.2456620603     -3100.5508988567      -504.9677170572      -621.7442106151     -1223.5085807520 
   38000       208.8931826267      9830.6465911153         0.9038684588      -398.4430278767     -1021.7365969250       177.1710965570       226.5280791653         6.0670895182      2162.0323685475     -3100.7030072441      -492.8322234688      -560.3659248001     -1129.4065239086 
   39000       213.5078502291      9867.8083741707         0.9004645253      -369.4579763033     -1006.5207483660       182.7371916088       231.7587281601        -0.9155660149      2200.1485814147     -3100.6214553673      -519.6282281674      -443.4977356469      -514.4798877993 
   40000       223.2062833141     10145.6495566684         0.8758050763      -350.9549950123     -1016.9558630707       167.8432365642       226.7837097031         2.0405424374      2179.0114010981     -3100.1093760918      -492.5253767816      -230.9814085584       810.8301611499 
   41000       225.8728515759      9947.7412725791         0.8932290396      -288.6624419591      -962.6197920247       190.0860357233       244.8954630443         8.5866253538      2200.1505314641     -3100.3869879937      -505.9514596166      -351.3086613001      -431.8117900591 
   42000       229.8436625596     10283.8368330857         0.8640365972      -237.0393978888      -922.8448174745       197.7106817179       246.5861716306        -2.4500069905      2231.1357088662     -3100.3262022888      -495.5011704098      -259.2872057350      -148.3392770618 
   43000       215.3905353678     10322.0798200143         0.8608353683      -294.6855328067      -937.3658435785       196.3263932272       248.6048708731        -3.4963293745      2188.2317396008     -3100.8621974718      -466.1703204333      -610.6052177956     -2098.6189260991 
   44000       230.3299290015     10202.8598928139         0.8708941882      -250.0062955989      -937.2626325495       195.0680854255       250.4702185442         4.5009883844      2188.9746003045     -3100.1331763486      -476.1433488595       -49.7089799647      1346.0999764849 
   45000       238.1749241315     10104.3181487453         0.8793875304      -194.4795444532      -905.1437061700       210.7971886420       250.3911081774        10.9882872045      2210.8652306085     -3101.1205641038      -487.0649566985      -269.0572505785      -506.0880930374 
   46000       249.5188213445     10239.7815111791         0.8677540018      -109.3540366619      -853.8660152000       221.4276359081       270.5700322108         4.5735861301      2236.0644330079     -3100.7377377325      -485.7639647244      -380.5405454006     -1815.9400230652 
   47000       253.0101077957     10538.4851964387         0.8431583115       -69.4403331215      -824.3695802625       236.1119682312       268.2274904718        11.0839128969      2236.8363025194     -3100.4638437559      -476.1654106259      -506.6723438702     -2844.8401649254 
   48000       259.4012156172     10248.4532711480         0.8670197491       -79.0206058690      -853.0195821134       212.2478155886       276.1267879543        10.2047943897      2227.2702570891     -3100.2128140865      -478.6564230486        58.2017380925       918.1013348143 
   49000       251.5480222951     10080.1434432801         0.8814965217       -97.0168187464      -847.5835085343       209.4697548374       276.9513286186         5.8205768205      2245.5828453872     -3099.1591613756      -486.2488528225       421.8479220468      3529.4867653196 
   50000       262.6099628279     10321.6423634410         0.8608718526        -9.7744767876      -793.3476836317       238.1068953706       293.7871202131        12.0685841120      2223.7216233590     -3099.7167142581      -461.3151924283        -1.2127010021        56.8773238336 
   51000       263.1989756673     10461.7102946110         0.8493459610       -28.1275223106      -813.4582202812       234.5853575991       279.1532914726         1.3474958259      2238.3049975771     -3100.4630222299      -466.3863405261      -434.7180964960     -2664.8865664148 
   52000       268.2585793022     10341.9630875126         0.8591803421        12.4158314779      -788.0116655740       249.6102750752       294.6911262240         0.4369426679      2236.3104249649     -3100.5015702659      -468.5588642400       -74.5051570358      -576.2962372020 
   53000       279.0692408050     10725.3035857807         0.8284717829       111.2577694461      -721.4264805889       245.6907250411       340.4557197354         8.3597753072      2236.2318989370     -3100.9430976472      -451.2215019625        25.0144474386      -551.3660146865 
   54000       277.2112941201     10631.6527641488         0.8357695253        66.2253803544      -760.9151453438       238.4524398136       300.2854680878         7.7081765592      2255.6707903595     -3100.4527990893      -462.5792210746       131.8454950573       423.2142788247 
   55000       276.5575426499     10747.5176483454         0.8267594131       121.6636191304      -703.5262489063       249.3102179695       330.1671700143         5.3400572917      2281.2346932517     -3098.4997019384      -471.0786854951         8.0315176875      -724.9649029665 
   56000       273.0399549925     10749.1182577168         0.8266363036        77.1540936676      -737.5400284675       243.4975766017       312.5106480863         5.7125972004      2262.2006449381     -3099.5942503026      -461.8672449914       224.8354227208       942.0563078278 
   57000       284.5791468249     10898.0821859852         0.8153371604       153.6641513457      -695.4605059112       255.6459337852       322.7113171551         9.2065831582      2276.5532141636     -3097.4993979504      -462.0781562229      -101.4961893403     -1605.4145888348 
   58000       299.0006802861     10829.6437395144         0.8204897222       242.3616291547      -649.7938678317       265.2214666938       333.7658685447         6.9758373552      2296.9276658627     -3100.2345563752      -452.4501499129       -69.2962179031     -1973.2767862985 
   59000       297.5119778911     10777.3637196250         0.8244698439       258.1791879216      -629.5343324652       289.7259181431       325.4436389084        11.0426375833      2302.7213474916     -3099.7465738619      -458.7213007297         1.4922591322     -1633.1095726368 
   60000       307.3600036822     10818.2581326502         0.8213532414       253.3764958524      -663.7214738793       261.2865344969       331.2468751351        16.0293582544      2261.3364658455     -3098.8709239308      -434.7497836804       140.7730757825      -713.7043637803 
Loop time of 64.3523 on 64 procs for 50000 steps with 1002 atoms

Performance: 67.130 ns/day, 0.358 hours/ns, 776.973 timesteps/s
99.4% CPU use with 64 MPI tasks x no OpenMP threads

MPI task timing breakdown:
Section |  min time  |  avg time  |  max time  |%varavg| %total
---------------------------------------------------------------
Pair    | 7.1976     | 11.014     | 15.412     |  70.6 | 17.12
Bond    | 0.20924    | 0.26044    | 0.31628    |   4.4 |  0.40
Kspace  | 7.4448     | 11.832     | 15.658     |  68.5 | 18.39
Neigh   | 20.666     | 21.688     | 21.947     |   6.1 | 33.70
Comm    | 17.454     | 17.733     | 18.811     |   7.1 | 27.56
Output  | 0.030033   | 0.03008    | 0.030463   |   0.0 |  0.05
Modify  | 1.046      | 1.1063     | 1.1582     |   2.4 |  1.72
Other   |            | 0.6877     |            |       |  1.07

Nlocal:    15.6562 ave 24 max 7 min
Histogram: 2 1 6 3 21 12 9 5 4 1
Nghost:    4876.66 ave 4927 max 4822 min
Histogram: 3 4 6 7 13 3 14 4 5 5
Neighs:    12434.8 ave 19097 max 6744 min
Histogram: 3 12 7 7 7 8 5 7 4 4

Total # of neighbors = 795826
Ave neighs/atom = 794.238
Ave special neighs/atom = 5
Neighbor list builds = 50000
Dangerous builds not checked
unfix anneal

# RUN EQUILIBRATION PHASE AT FINAL TEMP
fix anneal all npt temp ${FINAL_TEMP} ${FINAL_TEMP} 100.0 iso ${pressure} ${pressure} 1000.0 # NPT, nose-hoover 100 fs T relaxation
fix anneal all npt temp 298.0 ${FINAL_TEMP} 100.0 iso ${pressure} ${pressure} 1000.0 
fix anneal all npt temp 298.0 298.0 100.0 iso ${pressure} ${pressure} 1000.0 
fix anneal all npt temp 298.0 298.0 100.0 iso 1.0 ${pressure} 1000.0 
fix anneal all npt temp 298.0 298.0 100.0 iso 1.0 1.0 1000.0 
run ${nSteps_ramp}
run 50000
PPPM initialization ...
WARNING: Using 12-bit tables for long-range coulomb (../kspace.cpp:321)
  G vector (1/distance) = 0.187171
  grid = 8 8 8
  stencil order = 5
  estimated absolute RMS force accuracy = 0.00706452
  estimated relative force accuracy = 2.12746e-05
  using double precision FFTs
  3d grid and FFT values/proc = 343 8
Per MPI rank memory allocation (min/avg/max) = 10.43 | 10.54 | 10.55 Mbytes
Step Temp Volume Density TotEng PotEng E_bond E_angle E_dihed E_coul E_long E_vdwl Enthalpy Press 
   60000       307.3600036822     10818.2581326502         0.8213532414       253.3760852591      -663.7218844727       261.2865344969       331.2468751351        16.0293582544      2275.6101871046     -3113.1450557833      -434.7497836804       140.7732365524      -713.7007423587 
   61000       297.9310044995     10773.1524213532         0.8247921347       245.4715251522      -643.4922829989       256.0544110170       350.1894666256        13.1496072907      2304.6039761475     -3113.4847047238      -454.0050393559       536.0222704395      1849.2826706812 
   62000       297.4574154568     11083.5132636930         0.8016962828       281.0829081520      -606.4678093422       283.1356248849       347.5976420604        11.4803671788      2308.9348576462     -3114.0107993108      -443.6055018017       321.3023404698       248.8184622169 
   63000       315.4784949631     11276.7468577695         0.7879587523       360.1450292345      -581.1768205787       301.8835372551       335.1229162737        15.8212967449      2309.2815719784     -3114.6682602033      -428.6178826276       149.2943941263     -1282.0801986126 
   64000       301.5943833566     10620.0334438307         0.8366839361       216.8166409670      -683.0779235348       258.3688274238       309.5140933863        15.7158991709      2310.9085813432     -3111.9113884576      -465.6739364015        89.5847883960      -821.4744816439 
   65000       305.8551531425     10951.5881928203         0.8113536801       258.5668410686      -654.0409693772       275.9655658191       315.2064602745        11.4631842430      2290.0296984920     -3114.1108701756      -432.5950080303       434.6093546425      1102.2105575788 
   66000       288.9394183425     10982.3336839665         0.8090822624       266.5031935240      -595.6316020345       288.5514614393       359.6908824085        13.0922763443      2299.4095787183     -3114.6722925167      -441.7035084283       527.3946465726      1628.8808861000 
   67000       303.0404209171     10659.9188260924         0.8335533815       242.1745030002      -662.0347351580       259.9608053659       322.4998407423        14.4975397875      2307.5933736208     -3114.5428607328      -452.0434339417       672.1204851410      2765.5665124630 
   68000       285.8211556097     10672.5878700291         0.8325639003       179.2240211902      -673.6065305269       283.7036212500       308.9108455514        10.0913360430      2302.4789791575     -3115.2973708575      -463.4939416713       544.1774121505      2344.7242479302 
   69000       291.6819690172     10937.4152419595         0.8124050506       215.8067226608      -654.5112705341       274.6656571986       329.6462333038        19.9202528527      2304.4678776694     -3114.1493939826      -469.0618975761       207.8947774350       -49.6012569421 
   70000       290.4833164330     10967.4733107622         0.8101785281       210.6771458890      -656.0643186808       280.8977267871       319.3491021804        13.0750650761      2283.7780761671     -3114.1965143168      -438.9677745746       276.4359237188       411.1225111169 
   71000       304.7272127861     10628.1929641120         0.8360415937       232.5654890032      -676.6767833166       293.6132219570       297.6498461031         9.8383981751      2288.9612407156     -3114.1613317296      -452.5781585378        95.6898210337      -883.0614608174 
   72000       301.8055803951     10965.8353826331         0.8102995416       282.6485703432      -617.8761619518       284.7499435049       329.7489830753        14.3206715884      2302.0170869905     -3114.4191261769      -434.2937209341        39.4706632310     -1520.5703051236 
   73000       299.9837436271     10823.4641174335         0.8209581782       230.3203146051      -664.7684377929       271.5630353552       335.4722421267         8.8016139300      2298.4526636549     -3113.7543649406      -465.3036279190       497.7122318843      1693.9715189808 
   74000       296.1638178142     10573.8890098699         0.8403352234       232.4753462917      -651.2155463798       271.0483007065       334.8049357436        13.5720447567      2315.5786225813     -3114.0903875399      -472.1290626280       799.2054441814      3675.0702138847 
   75000       293.2802885343     10908.7460732989         0.8145401244       246.2884235027      -628.7986208587       281.1727344689       323.9584511706        13.8333804472      2317.1984311810     -3113.4480741966      -451.5135439298       110.7807288224      -851.7521429224 
   76000       290.5715689557     10668.3736239052         0.8328927817       189.2924704899      -677.7123211504       271.6982319639       305.9690910615        16.0410224932      2294.4673345390     -3113.4204454248      -452.4675557832       -38.8273239807     -1466.1853145005 
   77000       300.4514945921     11071.0363231625         0.8025997860       258.6970517208      -637.7873717315       267.8861431214       336.4341162035         7.5466957469      2291.6765739241     -3112.4751511558      -428.8557495716       296.2477327308       232.5699784433 
   78000       290.9177946383     10961.9973645152         0.8105832439       270.8621553065      -597.1757013613       268.4342938707       359.1682660570        12.8309090640      2315.6463911801     -3114.8697126784      -438.3858488547       207.8947619231      -393.8674875942 
   79000       307.6731668772     11088.2612125390         0.8013529997       280.7476215321      -637.2847616787       284.3951579000       327.9654598126         9.3960643296      2302.6021183703     -3112.6344414291      -449.0091206620      -165.5617696200     -2759.9212324027 
   80000       296.3212045420     10919.7267633038         0.8137210368       254.1184693828      -630.0420323686       283.4995901260       327.9213501049        15.7590858587      2304.7864721551     -3113.7905955912      -448.2179350222       396.6650119538       895.0947857664 
   81000       291.0871684764     10799.5379236754         0.8227769972       175.1839001491      -693.3593326286       250.5844968248       313.3603184104        11.1893023482      2303.4205288386     -3114.2951757953      -457.6188032554       -73.2980647627     -1577.6614342668 
   82000       287.1371630744     11188.3145264094         0.7941867707       243.8627442593      -612.8944985029       263.6828749990       355.9815223578        12.4526845876      2314.7314482544     -3114.9134650886      -444.8295636131       458.6767651484      1316.5036518571 
   83000       296.1848258626     10950.4059178856         0.8114412790       269.4956789258      -614.2578973684       296.7812638661       333.9266339035        15.8870296788      2296.3594526360     -3114.6667420001      -442.5455354527      -272.7864120845     -3395.6205589352 
   84000       293.2681394441     10827.5633733033         0.8206473679       248.0341733506      -627.0166206666       294.8725737025       326.1410716969         7.7244157453      2305.2674532422     -3113.5950016107      -447.4271334428       311.7569566996       403.5414158278 
   85000       303.0963909501     11045.4262335132         0.8044607058       253.0472034370      -651.3290375942       258.9798691530       316.6063864518         8.5113169459      2316.5617357363     -3113.5368280059      -438.4515178753         5.3563410091     -1537.6291948911 
   86000       296.9939084778     11110.1885798055         0.7997714278       271.8682249749      -614.2994846317       285.7586090523       323.4962021491         8.6667687028      2307.2855368906     -3114.5037845729      -425.0028168537       448.5396496464      1090.3576909159 
   87000       298.2371334787     10788.0289517435         0.8236547587       215.1141811721      -674.7630518290       269.4754247260       300.6900008136        11.5216696657      2289.1327620505     -3113.6692312975      -431.9136777874       261.3975891137       294.1760665967 
   88000       294.9110137909     10959.5895096089         0.8107613315       243.5326216291      -636.4201658484       287.7626623797       321.5273765028         8.7281068601      2304.3926889581     -3114.2713472226      -444.5596533264       178.9993270749      -403.7510454596 
   89000       301.0409463486     11149.4582390114         0.7969545419       279.8241589003      -618.4190653156       250.9694630885       337.6628672899         7.1452257067      2357.4769881107     -3111.8688481932      -459.8047613181        99.6246915110     -1108.2145515819 
   90000       287.5593243254     10959.0156011986         0.8108037900       190.0296036697      -667.9872799746       255.9297840377       309.6361950241        17.8611582548      2306.1525680215     -3114.1269438128      -443.4400414999        16.4924160538     -1085.7882068426 
   91000       298.2307222910     10733.9750992056         0.8278024964       236.2548928717      -653.6032104863       249.6836115605       326.6486012389        17.1525402306      2310.0184579882     -3114.1189501445      -442.9874713599       303.0448038021       426.6525949766 
   92000       306.0334133533     11137.3882522443         0.7978182301       268.4627226704      -644.6769789632       277.2287251111       302.5985224676         3.2773990236      2336.8718076225     -3113.6192207569      -451.0342124312       131.7141219378      -841.9060728902 
   93000       303.5864767718     10777.3530308047         0.8244706616       233.7323492862      -672.1062053403       263.2320518170       305.6745482816        18.4482730554      2318.5199172415     -3113.4091725972      -464.5718231386       278.6279550194       285.6379035546 
   94000       295.9840785913     11140.2970146478         0.7976099176       268.0572352982      -615.0973531227       252.8717400982       329.7929884103         6.7498295413      2335.2984541049     -3112.9523986765      -426.8579666009       359.0470506654       560.0413896208 
   95000       299.5926999867     11343.9116827835         0.7832934205       268.8401792293      -625.0817807288       273.8859933347       328.8084331994        10.8601891920      2320.4048151167     -3114.1802326435      -444.8609789281      -179.8237844423     -2711.9548985267 
   96000       292.5696914508     11241.2221969537         0.7904488701       218.5992023806      -654.3675688981       251.8469200159       295.8268666303        13.8561980388      2337.4819715199     -3114.3737883308      -439.0057367722       127.5833120538      -555.1723140225 
   97000       291.1373777256     11437.9620654931         0.7768526712       243.6365253588      -625.0565213177       272.4579198956       320.3492134992         0.0534617714      2310.5481811572     -3112.5073638754      -415.9579337656      -380.9049024097     -3744.0075040215 
   98000       303.2230273201     11392.1633604166         0.7799757695       291.8010024687      -612.9530950059       277.5387457769       320.2486673821         9.5928272714      2338.9426490202     -3113.0630165054      -446.2129679511       600.6190316031      1858.7481684777 
   99000       286.5014306263     10960.1565337354         0.8107193867       166.0710160966      -688.7893339975       250.5630544769       308.1742656611         9.8038506955      2311.3535400249     -3114.5178371838      -454.1662076721        67.8862996981      -614.2585974884 
  100000       294.4774665553     10870.6608562598         0.8173938550       228.7395160137      -649.9196571847       265.2164024654       307.2800995643        14.5026914251      2305.8567592523     -3115.2353747553      -427.5402351366       253.5431581877       156.4529013086 
  101000       291.8488030705     10979.4058361600         0.8092980181       240.8441229388      -629.9716681794       281.1296563586       296.5632633279        17.0132566559      2326.2440557398     -3114.6795334624      -436.2423667992       257.7940742167       105.8555727696 
  102000       293.3510258737     11158.0531833071         0.7963406553       236.1232730322      -639.1748367562       261.8801608350       326.5449694968        13.9484758862      2319.5392266002     -3114.4022440977      -446.6854254766        43.8389456825     -1181.6247278189 
  103000       306.7663245800     11102.1644055200         0.8003494687       264.2675154772      -651.0590399758       257.9436583553       312.7146795555        18.0872190273      2295.6336141840     -3112.5461198197      -422.8920912782       439.0739524419      1079.6273480249 
  104000       307.2410695906     10889.0459897868         0.8160137621       267.3146424748      -649.4284528018       264.7074090689       315.1312889079        10.6369699487      2299.3717073807     -3114.0004140720      -425.2754140360       614.1675958052      2184.1359904479 
  105000       290.2412943320     10967.5354725473         0.8101739361       208.2223438405      -657.7969773965       263.0840691280       311.8326140780        11.2393095814      2313.0617438854     -3115.0949081974      -441.9198058720       254.8322979129       291.4028116864 
  106000       297.4608281638     10946.0284381797         0.8117657864       253.1763880772      -634.3845122209       269.4434372085       318.6235067183         6.1010551386      2336.3002170163     -3112.5658665242      -452.2868617785       399.6730308898       917.6883339204 
  107000       286.7886378908     10779.3801048976         0.8243156190       218.5586535420      -637.1586629627       280.4667260817       316.1638325935        14.9380297378      2309.8212377378     -3114.3195293346      -444.2289597790       323.2179566843       665.7453825391 
  108000       304.8268006321     11014.2024380647         0.8067412446       204.5364646985      -705.0029569258       261.4426208907       301.4176539770         0.3958825842      2284.7624677952     -3113.5664742483      -439.4551079246       -66.7128464470     -1688.6502168161 
  109000       299.6525790653     11167.9489638708         0.7956350277       215.5811702651      -678.5194563405       245.1008282394       319.5578320556        15.0806740799      2265.5970126434     -3113.7857497277      -410.0700536311       126.4016184596      -547.5401559852 
  110000       287.2072089495     10586.6713225233         0.8393206054       225.3514002165      -631.6148447874       284.9553630863       332.5086421874        11.2157918475      2301.8790028003     -3114.3850796182      -447.7885650907       210.1510126138       -98.4508211839 
Loop time of 59.32 on 64 procs for 50000 steps with 1002 atoms

Performance: 72.825 ns/day, 0.330 hours/ns, 842.886 timesteps/s
99.3% CPU use with 64 MPI tasks x no OpenMP threads

MPI task timing breakdown:
Section |  min time  |  avg time  |  max time  |%varavg| %total
---------------------------------------------------------------
Pair    | 6.5735     | 9.9961     | 13.419     |  65.0 | 16.85
Bond    | 0.22685    | 0.25861    | 0.27947    |   2.3 |  0.44
Kspace  | 8.0338     | 11.487     | 14.906     |  60.7 | 19.36
Neigh   | 19.3       | 20.255     | 20.474     |   5.8 | 34.15
Comm    | 15.51      | 15.72      | 16.735     |   6.9 | 26.50
Output  | 0.027529   | 0.027562   | 0.027928   |   0.0 |  0.05
Modify  | 1.0235     | 1.0798     | 1.1291     |   2.2 |  1.82
Other   |            | 0.4964     |            |       |  0.84

Nlocal:    15.6562 ave 24 max 9 min
Histogram: 2 3 14 5 14 9 9 5 1 2
Nghost:    4969.56 ave 5061 max 4890 min
Histogram: 3 3 11 10 8 10 9 6 2 2
Neighs:    12703.1 ave 21026 max 7070 min
Histogram: 8 8 10 7 11 7 3 3 5 2

Total # of neighbors = 812998
Ave neighs/atom = 811.375
Ave special neighs/atom = 5
Neighbor list builds = 50000
Dangerous builds not checked
unfix anneal
undump anneal

# RETURN TO LESS FREQUENT NEIGHBOR BUILDS
neigh_modify every 1 delay 10 check yes one 10000 # More relaxed rebuild criteria can be used

#===========================================================
# RUN EQUILIBRIUM SIM
#===========================================================

# UPDATE RUN PARAMETERS AND CREATE FIX
fix equil all npt temp ${FINAL_TEMP} ${FINAL_TEMP} 100.0 iso ${pressure} ${pressure} 1000.0 # NPT, nose-hoover 100 fs T relaxation
fix equil all npt temp 298.0 ${FINAL_TEMP} 100.0 iso ${pressure} ${pressure} 1000.0 
fix equil all npt temp 298.0 298.0 100.0 iso ${pressure} ${pressure} 1000.0 
fix equil all npt temp 298.0 298.0 100.0 iso 1.0 ${pressure} 1000.0 
fix equil all npt temp 298.0 298.0 100.0 iso 1.0 1.0 1000.0 

# CREATE COORDINATE DUMPS FOR EQUILIBRIUM
dump equil all custom ${coords_freq} equil.lammpstrj id type x y z mol
dump equil all custom 1000 equil.lammpstrj id type x y z mol
dump_modify equil sort id format float %20.10g

# RUN EQUIL
run		${nSteps_equil}
run		100000
PPPM initialization ...
WARNING: Using 12-bit tables for long-range coulomb (../kspace.cpp:321)
  G vector (1/distance) = 0.187611
  grid = 8 8 8
  stencil order = 5
  estimated absolute RMS force accuracy = 0.00691409
  estimated relative force accuracy = 2.08216e-05
  using double precision FFTs
  3d grid and FFT values/proc = 343 8
Per MPI rank memory allocation (min/avg/max) = 11.04 | 11.05 | 11.05 Mbytes
Step Temp Volume Density TotEng PotEng E_bond E_angle E_dihed E_coul E_long E_vdwl Enthalpy Press 
  110000       287.2072089495     10586.6713225233         0.8393206054       225.3537423542      -631.6125026498       284.9553630863       332.5086421874        11.2157918475      2309.1790060880     -3121.6827407683      -447.7885650907       210.1652573718       -98.3737295479 
  111000       305.4309933103     10613.3970851820         0.8372070989       246.4269818735      -664.9152243417       286.2161041240       312.4922596751        16.1757081489      2303.6339666165     -3120.4321824020      -463.0010805043       312.6628064524       427.9200590674 
  112000       315.6867562300     10980.8650646426         0.8091904719       302.0475862492      -639.8956716287       296.3235838372       323.1840645368         8.5027842982      2301.8151207059     -3122.3439281219      -447.3772968848       130.2762730297     -1072.6009854956 
  113000       297.5010174782     10847.0888618674         0.8191701476       219.1319729626      -668.5488438446       274.3756916180       307.3576168218         7.1867680396      2322.9816591642     -3120.4151580466      -460.0354214416      -153.4323931789     -2355.1155888109 
  114000       304.5438427690     10867.8077718447         0.8176084423       236.1452201478      -672.5499143910       277.3951053096       304.3308341613         9.8485983635      2293.1831706195     -3120.3134577935      -436.9941650513       532.8321906533      1871.8913460554 
  115000       297.6936922121     10963.2249305102         0.8104924819       231.4521364800      -656.8035814371       258.3466834788       334.0295254496         6.4439550251      2332.0380182466     -3121.1319278899      -466.5298357474       311.4914759023       500.5981977582 
  116000       293.0770851815     11054.9942810873         0.8037644487       236.6066712324      -637.8740568223       281.8575083737       305.8613887750         9.1306964095      2327.8426679148     -3120.0248496527      -442.5414686427        87.9428039991      -922.0851214187 
  117000       300.4134765631     11084.4542661559         0.8016282237       236.5883414789      -659.7826441260       265.1640038024       321.4350188165        15.0277954218      2275.2803853641     -3122.0001628940      -414.6896846369       121.3789054287      -712.6853729850 
  118000       303.9352823265     10964.9375078664         0.8103658938       245.8249341718      -661.0543832807       252.1158510723       319.6844057436        11.3149177546      2324.1613470084     -3121.4721138022      -446.8587910575        92.2026680292      -960.6653289681 
  119000       284.4818745689     11189.8084387717         0.7940807416       189.1477082449      -659.6867089436       259.6702667405       314.5753355503         6.3629527207      2331.0298076260     -3120.2297515745      -451.0953200067       226.7268970689       230.2760971062 
  120000       299.3630054752     10692.2609062203         0.8310320391       177.1648052667      -716.0717943073       235.0014970122       315.9600516031        13.2966165201      2299.3188608749     -3121.7696383612      -457.8791819564       287.1618653795       705.4003014657 
  121000       296.1623439144     10986.8386853521         0.8087505094       241.5744322498      -642.1120626129       279.1094308947       297.2801355751         6.8054233369      2349.7898293431     -3120.7530413077      -454.3438404549       128.4441923727      -706.0412425358 
  122000       287.3320933860     10948.1181865894         0.8116108387       207.7303452357      -649.6085288084       274.2380921913       306.7318749113        15.0741826002      2312.3426380385     -3120.3996333601      -437.5956831896       478.9864394016      1698.8856092938 
  123000       304.6228761489     11258.8714519669         0.7892097731       254.0849729350      -654.8459806802       256.0791075573       323.8376852582        10.8992081813      2314.5514175178     -3121.1313086185      -439.0820905762       190.9293610664      -384.6282660443 
  124000       292.3716477232     10814.1436341038         0.8216657448       195.8031250925      -676.5727251218       261.7361265978       329.0124140332         5.0715228962      2305.3002348447     -3122.5439409502      -455.1490825434       164.0324503651      -201.4458919031 
  125000       303.6770717230     10645.2281156771         0.8347037083       228.9742339652      -677.1346370487       238.1663820748       330.2304774299        16.5006406980      2332.5217790611     -3121.1107206197      -473.4431956929       443.4468889261      1381.4687531072 
  126000       301.6750911394     10851.5587788094         0.8188327193       229.7216449230      -670.4137347235       264.5335583741       314.5549435948         7.7110465306      2306.9308117239     -3121.5318479303      -442.6122470166       474.6674464227      1547.7541717357 
  127000       299.4077333044     10873.2273467020         0.8172009193       265.6176237288      -627.7524343331       288.4642753341       320.3416721162        16.5582937414      2320.7835114968     -3121.1464412746      -452.7537457471        64.5860292771     -1267.7393157480 
  128000       292.6090088370     10747.4205620401         0.8267668816       202.8113831255      -670.2727030107       286.6534207962       299.9735291214         8.9275323958      2305.6948244536     -3121.4051589856      -450.1168507922       -17.2848838388     -1404.2115581167 
  129000       294.5811022781     11311.2696736544         0.7855538450       265.5176763720      -613.4507241490       278.4633483881       319.2577843691         7.9446257846      2354.9169376718     -3120.7344246307      -453.2989957318       244.7574607529      -125.8475061713 
  130000       297.5348423917     10782.6800765466         0.8240633424       213.4495159717      -674.3322273030       263.0484557410       299.8560014532         8.7839373058      2340.2796692079     -3121.9956354053      -464.3046556056      -204.1385508245     -2655.4948917949 
  131000       302.4893552209     10722.2538239306         0.8287074275       229.9255197007      -672.6394536698       253.5537284917       305.6682542698        10.5793955588      2326.8381937245     -3121.5506783597      -447.7283473549       493.5919260654      1686.1368766356 
  132000       302.7000758100     11241.9555518813         0.7903973061       286.3633659838      -616.8303535544       271.0851247817       313.2207244615        13.3284463721      2353.7297412296     -3121.1838136964      -447.0105767028       539.4372444536      1543.5815098624 
  133000       287.5490940929     10778.2985752356         0.8243983335       230.2818053069      -627.7045534632       260.2056204237       340.0273318719        18.2207402344      2307.7236008704     -3120.7903506441      -433.0914962194       157.8326611735      -460.9004794828 
  134000       295.2303547416     11027.0989633141         0.8057977364       239.6235181952      -641.2821158921       264.7166938555       334.4452099255        17.0192692360      2309.3212197148     -3121.9724822333      -444.8120263906       258.4140790016       116.8429680136 
  135000       294.5035976009     10920.1738666702         0.8136877207       233.2256495751      -645.5114931985       267.1655359223       307.7547130178        15.5445478948      2329.7888369335     -3121.0733073270      -444.6918196399       234.3339902514         6.9593363971 
  136000       291.5357689600     10914.5779937711         0.8141048961       218.9238144615      -650.9579483392       285.0737267984       312.6426076251         8.1218985155      2316.3539956020     -3120.6220718610      -452.5281050192      -336.9875263530     -3492.3896775420 
  137000       290.4353864849     11251.7367846502         0.7897102068       252.7420457002      -613.8564059285       251.7993019369       320.2378933735        13.3103923492      2327.6926584510     -3120.7246868606      -406.1719651786       673.9777282073      2567.0226422604 
  138000       283.7115787582     11146.5678924838         0.7971611952       243.4440991455      -603.0919164435       276.3002412345       314.4439897006        15.3027565484      2343.7557211281     -3120.7420223662      -432.1526026889       425.0854256880      1117.3715514635 
  139000       295.7063193158     10924.7267354095         0.8133486172       278.6367451500      -603.6890676834       271.0874348343       329.2687352067        13.0020688529      2362.5890355049     -3122.1526456740      -457.4836964082       581.1765804648      1898.8737644725 
  140000       293.0891681771     10991.8703459997         0.8083802942       242.5949052490      -631.9218759374       261.8436081734       330.8956247048        13.1012393478      2321.5015182914     -3122.4822419863      -436.7816244685        26.3385908036     -1349.0290777181 
  141000       300.8945498839     11415.3861515133         0.7783890326       272.0627524610      -625.7436553213       262.0362541992       316.0346773227        12.9411505070      2325.9113812222     -3120.7108521402      -421.9562664320       775.8105806120      3025.8450899120 
  142000       295.7429516853     10904.3263993078         0.8148702688       246.1540742657      -636.2810418970       264.9038309807       313.3298295538        13.7025032179      2323.1518732538     -3121.2903012070      -430.0787776961       219.8424425347      -165.4523918112 
  143000       310.4332488232     11037.7998265303         0.8050165362       323.8899834318      -602.3779070626       274.6743302934       319.0504010453        13.3638700267      2358.8472454765     -3120.8204670112      -447.4932868933       451.7290289990       794.1547108498 
  144000       302.8252611430     11179.4271572321         0.7948181296       209.2034609576      -694.3637854331       251.4549778196       287.7578130004         6.1757127078      2311.6426258485     -3120.4035732931      -430.9913415164       -53.1316892474     -1609.0185297828 
  145000       297.6407163469     11334.5247099013         0.7839421247       274.4116802224      -613.6859687924       263.6009497300       337.1511727046        11.9995427855      2339.4158311000     -3121.2010972568      -444.6523678556      -226.9394959701     -3032.9331303918 
  146000       290.5774176939     11435.7722546811         0.7770014290       255.2031637936      -611.8190792584       278.2470641247       304.1674864379        11.4544397727      2337.4660962850     -3121.3564765655      -421.7976893131       385.4981668416       781.2434212970 
  147000       301.6380022525     11118.0049192532         0.7992091610       271.6274511799      -628.3972629847       259.6208603831       315.8345400596         3.1309107421      2347.3872879665     -3122.1528631289      -432.2179990072       429.2286806595       971.9789284097 
  148000       293.9956710837     11457.6707366394         0.7755163844       269.9812177035      -607.2403785704       287.8001673455       297.8980250489        10.1930494511      2350.4696366221     -3120.5788800925      -433.0223769455        30.3888710688     -1433.8400738237 
  149000       306.5424187302     10950.3226736716         0.8114474476       200.7992646925      -713.8592025323       246.4885921934       280.2605539075         4.7319936130      2316.7783541662     -3122.0799808471      -440.0387155653       -11.9085145696     -1331.9274433109 
  150000       308.1639333083     11289.9182408090         0.7870394802       300.6390360659      -618.8576915364       263.3303270414       308.0972979094         9.7344669503      2334.8468165514     -3118.8850158610      -415.9815841279       642.8097084069      2078.1461974722 
  151000       292.1237570799     11347.5430580329         0.7830427554       272.1904133391      -599.4457830393       267.4086304186       319.7945149634         7.6560199922      2352.9151230639     -3119.9533349378      -427.2667365397       146.9145749996      -756.9890353180 
  152000       282.8827257039     10893.4200660497         0.8156861050       182.3778508298      -661.6850405916       256.3825571971       291.7452570916        12.1771604281      2343.9609378453     -3120.6941860162      -445.2567671375       176.9795212778       -33.9796775290 
  153000       301.4368734542     11681.2469437014         0.7606731907       320.5965028129      -578.8280850819       256.1073083411       335.1084513265        16.0704145105      2349.0421281730     -3121.5821580298      -413.5742294032       182.9124255883      -808.1995861851 
  154000       295.9261864680     11114.4120034108         0.7994675185       286.2233309329      -596.7585194998       265.9446440632       319.2263477742         8.6248338020      2362.2459492313     -3121.2853789304      -431.5149154401       264.5387068994      -133.7794837359 
  155000       300.1183770825     10961.1639744975         0.8106448735       205.2007112053      -690.2897592665       248.4384581842       287.3510967736        10.6747710416      2339.9283573965     -3120.1008975152      -456.5815451473       -54.8592277270     -1626.8252038806 
  156000       280.8556516229     11280.9885223027         0.7876624789       271.6367365589      -566.3777897469       271.7514383622       338.2103148248        16.8377461791      2362.1401770157     -3121.6925761701      -433.6248899586       288.9143228772       105.0171008091 
  157000       296.7030939627     11227.0695645199         0.7914452950       237.2898642101      -648.0101157043       263.1892488292       316.4693764069        13.5594972408      2310.3504247347     -3122.1443199759      -429.4343429400       442.2050638622      1251.5029294874 
  158000       302.3482884040     11361.6324416889         0.7820717163       265.9353991593      -636.2086603322       278.8581547307       305.2662129332         9.8509049464      2316.2522760221     -3120.2316756587      -426.2045333060       102.1454984683      -988.4859364203 
  159000       287.5398724555     11213.8834158263         0.7923759374       206.5613650715      -651.3974782612       268.8561124461       298.7597772465        10.9558797603      2343.6102048942     -3121.3891129700      -452.1903396384       423.7906528097      1328.2702699375 
  160000       298.4980672445     11062.0290847206         0.8032533015       277.7411636605      -612.9146411261       285.7465787609       315.1712403640        15.3500846165      2329.7919578612     -3120.0866971489      -438.8878055797       338.2721597981       375.2037200174 
  161000       290.3279815717     10989.6645415293         0.8085425492       228.0506018243      -638.2273760062       256.6261635323       330.0191534102        11.7913740349      2317.9745521318     -3120.7196061063      -433.9190130092       220.3639987913       -47.9594426848 
  162000       307.4976854009     11155.7244049776         0.7965068929       274.9370917250      -642.5716914607       269.4423912054       311.4647146625         4.3561724833      2343.3051985889     -3120.5153137729      -450.6248546280       426.4457229290       931.2444735406 
  163000       301.1109387522     11037.7455206494         0.8050204969       244.8340564055      -653.6180105044       259.8816580842       326.0838007947         6.9959122298      2311.5484904040     -3120.1081651089      -438.0197069082       114.0852302190      -812.2346866891 
  164000       310.7811696909     10860.2391225769         0.8181782448       241.3862846966      -685.9197289026       252.7206200475       293.3758685770        13.2124482870      2310.9740834949     -3121.5466811784      -434.6560681306       389.0319564495       932.1921533624 
  165000       298.7735437834     11164.8774390748         0.7958539117       277.6857180539      -613.7920511116       272.6191068749       319.0337207256        13.1671338341      2339.7755435672     -3120.6044134748      -437.7831426387       293.4982691012        97.1118194837 
  166000       299.8695931318     11093.8809271795         0.8009470664       285.1377816325      -609.6103695612       270.0660001484       334.6157534118        14.8423220381      2341.4445063077     -3121.0620055074      -449.5169459598       512.4777438883      1405.1296368117 
  167000       292.2862102297     11781.5807165981         0.7541951795       284.1935927701      -587.9273298318       275.1952821909       334.2830980605         7.7367315818      2325.8231937755     -3120.3299229689      -410.6357124716       142.2354150764      -826.1919580143 
  168000       302.2383939481     10830.0151470110         0.8204615841       278.3466801886      -623.4694772300       272.4557731977       318.1532496161        16.1344556189      2333.9709196980     -3119.6378401267      -444.5460352339       414.2941433142       860.7284425050 
  169000       295.9743772964     11144.8154431464         0.7972865436       273.9458220459      -609.1798197401       264.3776517266       331.6968535113        13.1607889495      2351.6096286079     -3121.4324871206      -448.5922554149       600.7888341104      2010.8998130491 
  170000       302.7223401081     10865.1912740883         0.8178053344       273.6257584192      -629.6343931282       286.9126775213       309.1536722219         7.4084888201      2344.1437429200     -3120.6030390428      -456.6499355687       232.7522566203      -257.9458716510 
  171000       296.4414728506     10994.7097660562         0.8081715273       235.1688961629      -649.3504610685       266.2510952794       319.7491131140        16.2367276721      2328.9064506691     -3120.5379166392      -459.9559311640       228.4561000783       -41.8642963330 
  172000       299.2511015238     10649.2274318154         0.8343902354       185.4760669497      -707.4266346369       252.5942604083       314.4630092525         9.3818394159      2297.2359726835     -3121.8712313262      -459.2304850709       689.4444748468      3244.9598020922 
  173000       291.3750184203     11172.6078849732         0.7953032519       224.2641099973      -645.1380068121       234.7648360164       355.9793285798         8.4776207020      2323.5657548425     -3121.5772334029      -446.3483135499       442.8962198344      1341.7867514892 
  174000       302.2782248175     11108.2992418301         0.7999074557       283.2888721243      -618.6461322785       264.8534204824       339.7391862431         7.4017769551      2335.7697821279     -3121.2776458860      -445.1326522011       249.6537793202      -207.6199922009 
  175000       303.0834618027     10877.2689218956         0.8168972788       221.4554606337      -682.8822025256       262.0629585867       333.5382916100        10.3006626605      2295.9314408143     -3122.0962129478      -462.6193432492      -177.5770526876     -2515.4316923095 
  176000       292.3554843577     10869.7942645923         0.8174590215       222.9821334124      -649.3454886997       275.1132095751       315.9244557663        16.3583313252      2324.8668635389     -3121.5394839537      -460.0688649514      -131.7402563222     -2237.6460342348 
  177000       312.3747717588     10751.7417140574         0.8264346019       280.3109186652      -651.7500702189       266.2071800840       306.7111953526        18.3416317558      2314.4827070570     -3121.4554866232      -436.0372978450       822.4499256726      3457.4502818988 
  178000       295.4605005043     11188.7415354266         0.7941564612       235.6120098176      -645.9803310929       248.3515605825       325.6753421816        15.0254079234      2322.8635764232     -3121.7690116425      -436.1272065611       -50.0464438363     -1750.6121967676 
  179000       298.6339586911     11170.7599303373         0.7954348172       262.2563941293      -628.8048823136       282.4352523798       318.8056783887        11.3955591405      2308.5009292113     -3120.7661051031      -429.1761963308       263.9097862491        10.1488598573 
  180000       301.4774770249     11116.8623087321         0.7992913051       297.2608415576      -602.2848989001       279.3967957638       333.6025018199        16.8843490660      2320.7153646509     -3120.5895412525      -432.2943689481       499.5281895110      1247.5778749662 
  181000       279.7287786943     11176.5121619802         0.7950254297       187.1636533322      -647.4885198287       264.5142946800       318.4138273577        12.0760550391      2317.0606324514     -3120.9186027415      -438.6347266155       -87.9539987979     -1687.8594208713 
  182000       304.1121253198     10898.1866992806         0.8153293414       229.2144755617      -678.1925043978       259.9575405693       309.8969469015        11.9389827532      2298.9430204018     -3121.2294086018      -437.6995864218       438.4493489105      1316.4486922586 
  183000       308.6389917363     11073.6601492655         0.8024096156       239.7486125107      -681.1655900872       247.2580666587       314.4295260893        13.5903641426      2313.6007119382     -3121.1647215399      -448.8795373761       116.0918504397      -765.6861475746 
  184000       283.8667695250     10956.8864622756         0.8109613451       216.7895742398      -630.2094981408       266.2155338696       340.3707475739        10.9094725163      2339.9397820266     -3121.6121759152      -466.0328582119       385.3189850533      1054.6604293247 
  185000       299.0000178796     10697.2834403182         0.8306418572       226.9095873785      -665.2439331253       276.1557235694       312.5127845974        12.5400855204      2323.1027239652     -3121.3080908752      -468.2471599026       487.0080927063      1667.2029262101 
  186000       294.1201798554     11060.8319649570         0.8033402380       206.1012030557      -671.4919013532       255.4608900299       314.5595895548        13.2918488250      2298.1443689071     -3120.5851579934      -432.3634406765       105.5604817307      -623.2729984558 
  187000       303.3772537825     11121.5843188301         0.7989519415       266.7663979295      -638.4478790539       268.8334267344       316.7900120557         9.1119092444      2318.4981726095     -3121.3485232143      -430.3328764836       514.1240570633      1525.0455455522 
  188000       295.1203849098     11261.9953186531         0.7889908610       270.9464233846      -609.6310837236       262.6701800987       315.4188938762         9.2212510647      2341.8469060105     -3120.5891434048      -418.1991713688       376.8655973666       644.8866006916 
  189000       297.8897490272     10816.3671832541         0.8214968328       236.7105594801      -652.1301509700       258.3803277751       321.3227951926        18.0038855716      2333.1331110399     -3121.3013086671      -461.6689618821       243.1053950069        40.5389100452 
  190000       285.6871877071     11242.1840798201         0.7903812391       214.0621669275      -638.3686525863       252.9307318605       318.7243741823         4.2285495444      2358.6645182628     -3122.4079685342      -450.5088579021       306.0769956035       561.2175458092 
  191000       295.1348187066     10961.2651776997         0.8106373890       260.9234314033      -619.6971431361       270.6687859933       323.8616219312        11.7115736335      2338.3731268901     -3120.7088030608      -443.6034485234       185.2395490974      -473.4420494929 
  192000       302.5183782547     11079.8333611915         0.8019625471       216.3953803885      -686.2561916450       247.4267010574       316.2425466284        11.8179314734      2303.4854741444     -3121.1555695533      -444.0732753953        56.3360744672      -990.5395284610 
  193000       300.5566423320     11133.5224184785         0.7980952523       306.3013068591      -590.4968554583       266.5458048744       323.5190103136        22.4012680350      2360.0505799055     -3120.0835132055      -442.9300053814        70.2123610067     -1454.0092710685 
  194000       289.3288262274     11371.4320162013         0.7813977493       215.8234268078      -647.4732804386       269.6294134532       293.0045610010        12.8843656131      2320.5212774528     -3121.5328870242      -421.9800109345       437.6505284253      1337.5916718566 
  195000       299.4214544183     11036.3968709323         0.8051188705       221.6129006997      -671.7980982966       248.8959309492       303.4711745199        13.9147606751      2328.4269441804     -3120.0586341451      -446.4482744761       246.4173795571       154.1086117181 
  196000       295.4637621707     11123.4947369275         0.7988147245       253.6877847551      -627.9142882860       266.1201287312       305.3322717526         4.2099559365      2335.7382549032     -3119.3937055411      -419.9211940684       185.8235179224      -418.3348238934 
  197000       286.0037374184     11287.8461056150         0.7871839588       242.0235236769      -611.3518139723       272.9511885930       330.6431350739         8.2650038676      2314.2144205208     -3122.1161081886      -415.3094538390      -168.4932868357     -2493.6986883353 
  198000       280.5410412774     11045.6240672986         0.8044462974       202.8804704051      -634.1953244273       264.3064556574       323.5612884370        13.8617284474      2325.4885610905     -3122.0180903190      -439.3952677406       342.0163632275       863.7201105448 
  199000       297.7728685815     10772.9587732630         0.8248069607       282.6348651938      -605.8570984506       292.3640262868       327.2138141477        11.1325199295      2358.5642766759     -3120.9412247129      -474.1905107775        45.8213674237     -1507.2856523875 
  200000       293.1681256982     10990.2314564486         0.8085008418       227.0802212111      -647.6721527051       259.6375974615       328.4041161921        13.4878305915      2332.0280900447     -3121.9002657782      -459.3295212166       -60.7547025572     -1795.8115425180 
  201000       303.1174630833     10890.1250024765         0.8159329100       248.4224801126      -656.0166357569       268.7182145819       301.8328630532        10.7095606262      2321.7860459638     -3121.2942205913      -437.7690993907       -26.9491050334     -1733.8453989470 
  202000       302.1632590562     11284.3836119186         0.7874254979       305.0693121503      -596.5226584646       262.7130838613       329.1570952408         7.5950991677      2372.0367308171     -3121.4075284168      -446.6171391347       226.8286759812      -475.4213074643 
  203000       294.4099073241     11377.7059201881         0.7809668703       253.9983544900      -624.4592360918       266.3691281316       331.3977808192        15.4134359696      2300.1697175979     -3120.8799927080      -416.9293059021       645.1935196050      2357.5607082621 
  204000       298.7075231846     11090.3181252266         0.8012043733       262.4879796736      -628.7927978328       255.6352260464       330.8564385481        10.6922402031      2327.0299319231     -3122.2253772553      -430.7812572983      -225.4364261467     -3016.7036480963 
  205000       283.4363645046     11341.4808503583         0.7834613046       195.9842126715      -649.7306211432       269.9049307860       313.0217101578        12.4884429995      2299.7381421256     -3121.2976831888      -423.5861640233      -106.8812372510     -1831.0663425216 
  206000       289.0648103971     10910.5953497952         0.8144020650       221.0964310412      -641.4125081839       267.1783298602       321.6456937263        13.8744473728      2336.4925282034     -3121.1165708228      -459.4869365238       550.1627326256      2068.0406527938 
  207000       299.6822126455     10875.0991527285         0.8170602639       226.0040422121      -668.1850047992       242.4752809958       323.2813988179        13.4533406569      2321.3293457730     -3121.1446983176      -447.5796727253       417.2423336605      1205.7735150522 
  208000       302.5276073924     10597.6374751168         0.8384520988       251.2408528431      -651.4382570071       247.5543320026       334.6692232347         7.8030323472      2363.0733428870     -3120.7829418830      -483.7552455955       -56.9608938795     -1994.1147564842 
  209000       295.2238398356     10987.9255135851         0.8086705150       241.1674544747      -639.7187404956       273.2782458483       307.4897813982         9.0971386860      2333.2311899757     -3120.5240130882      -442.2910833156       288.8862663212       297.7817141140 
  210000       296.0296596034     10763.6412960009         0.8255209496       224.4103776213      -658.8802150070       276.4060517172       312.6446459437         7.2262076179      2312.7072161117     -3121.0842323034      -446.7801040941       409.2387359407      1177.4256711546 
Loop time of 59.5393 on 64 procs for 100000 steps with 1002 atoms

Performance: 145.114 ns/day, 0.165 hours/ns, 1679.564 timesteps/s
99.3% CPU use with 64 MPI tasks x no OpenMP threads

MPI task timing breakdown:
Section |  min time  |  avg time  |  max time  |%varavg| %total
---------------------------------------------------------------
Pair    | 11.841     | 18.63      | 25.764     |  93.6 | 31.29
Bond    | 0.4617     | 0.4965     | 0.53012    |   2.5 |  0.83
Kspace  | 15.711     | 22.843     | 29.803     |  84.1 | 38.37
Neigh   | 1.5072     | 1.5863     | 1.6075     |   1.7 |  2.66
Comm    | 12.874     | 13.066     | 14.312     |   8.5 | 21.94
Output  | 0.046998   | 0.047055   | 0.047611   |   0.0 |  0.08
Modify  | 2.0094     | 2.1047     | 2.1933     |   2.8 |  3.53
Other   |            | 0.7654     |            |       |  1.29

Nlocal:    15.6562 ave 21 max 9 min
Histogram: 2 2 6 2 14 14 7 3 8 6
Nghost:    4919.52 ave 4974 max 4855 min
Histogram: 1 1 3 7 13 14 13 9 2 1
Neighs:    12506.3 ave 21711 max 6146 min
Histogram: 7 6 11 9 11 6 5 4 3 2

Total # of neighbors = 800405
Ave neighs/atom = 798.807
Ave special neighs/atom = 5
Neighbor list builds = 3813
Dangerous builds = 0
unfix equil
undump equil

# WRITE RESTART FILES, CLEANUP, AND EXIT
write_restart   md-6.end.restart
PPPM initialization ...
WARNING: Using 12-bit tables for long-range coulomb (../kspace.cpp:321)
  G vector (1/distance) = 0.187274
  grid = 8 8 8
  stencil order = 5
  estimated absolute RMS force accuracy = 0.00702905
  estimated relative force accuracy = 2.11678e-05
  using double precision FFTs
  3d grid and FFT values/proc = 343 8
write_data      md-6.end.data pair ii
PPPM initialization ...
WARNING: Using 12-bit tables for long-range coulomb (../kspace.cpp:321)
  G vector (1/distance) = 0.187274
  grid = 8 8 8
  stencil order = 5
  estimated absolute RMS force accuracy = 0.00702905
  estimated relative force accuracy = 2.11678e-05
  using double precision FFTs
  3d grid and FFT values/proc = 343 8
unfix		averages
Total wall time: 0:03:14
