
#===========================================================
# GENERAL PROCEDURES
#===========================================================
units		real	# g/mol, angstroms, fs, kcal/mol, K, atm, charge*angstrom
dimension	3	# 3 dimensional simulation
newton		on	# use Newton's 3rd law
boundary	p p p	# periodic boundary conditions
atom_style	full    # molecular + charge

#===========================================================
# FORCE FIELD DEFINITION
#===========================================================
special_bonds  lj   0.0 0.0 0.0  coul 0.0 0.0 0.0     # NO     1-4 LJ/COUL interactions
pair_style     hybrid lj/cut/coul/long 14.0 14.0 # outer_LJ outer_Coul (cutoff values, see LAMMPS Doc)
kspace_style   pppm 0.0001          # long-range electrostatics sum method
bond_style     harmonic             # parameters needed: k_bond, r0
angle_style    harmonic             # parameters needed: k_theta, theta0
dihedral_style hybrid opls            # parameters needed: V1, V2, V3, V4
pair_modify    shift yes mix arithmetic       # using Lorenz-Berthelot mixing rules

#===========================================================
# SETUP SIMULATIONS
#===========================================================

# READ IN COEFFICIENTS/COORDINATES/TOPOLOGY
read_data ${data_name}
read_data md-3.data
  orthogonal box = (-22.3237 -22.3237 -22.3237) to (22.3237 22.3237 22.3237)
  4 by 4 by 4 MPI processor grid
  reading atoms ...
  1002 atoms
  scanning bonds ...
  1 = max bonds/atom
  scanning angles ...
  6 = max angles/atom
  scanning dihedrals ...
  3 = max dihedrals/atom
  reading bonds ...
  835 bonds
  reading angles ...
  1169 angles
  reading dihedrals ...
  501 dihedrals
  4 = max # of 1-2 neighbors
  3 = max # of 1-3 neighbors
  4 = max # of 1-4 neighbors
  5 = max # of special neighbors
include ${settings_name}
include md-3.in.settings
     # Non-bonded interactions (pair-wise)
     pair_coeff           1          1          lj/cut/coul/long      0.044000             2.571134
     pair_coeff           1          2          lj/cut/coul/long      0.044000             2.571134
     pair_coeff           1          3          lj/cut/coul/long      0.067971             3.000992
     pair_coeff           1          4          lj/cut/coul/long      0.051381             2.844640
     pair_coeff           2          2          lj/cut/coul/long      0.044000             2.571134
     pair_coeff           2          3          lj/cut/coul/long      0.067971             3.000992
     pair_coeff           2          4          lj/cut/coul/long      0.051381             2.844640
     pair_coeff           3          3          lj/cut/coul/long      0.105000             3.430851
     pair_coeff           3          4          lj/cut/coul/long      0.079373             3.274498
     pair_coeff           4          4          lj/cut/coul/long      0.060000             3.118146

     # Stretching interactions
     bond_coeff           1           366.904251           1.096103
     bond_coeff           2           612.219900           0.957501
     bond_coeff           3           368.709924           1.411527

     # Bending interactions
     angle_coeff          1           40.926667            108.205025
     angle_coeff          2           61.328715            112.232133
     angle_coeff          3           49.873049            108.741688

     # Dihedral interactions
     dihedral_coeff       1          opls                  0.105414            -0.205941             0.372587            -0.070860

# SET RUN PARAMETERS
timestep	1.0		# fs
run_style	verlet 		# Velocity-Verlet integrator
neigh_modify every 1 delay 0 check no one 10000 # More relaxed rebuild criteria can be used

# Setting up fixes to scale the charges by 0.0
group charge_1 type 1
501 atoms in group charge_1
group charge_2 type 2
167 atoms in group charge_2
group charge_3 type 3
167 atoms in group charge_3
group charge_4 type 4
167 atoms in group charge_4
variable charge_1 equal 0.0
variable charge_2 equal 0.0
variable charge_3 equal 0.0
variable charge_4 equal -0.0
fix 1 charge_1 adapt 0 atom charge v_charge_1 reset yes
fix 2 charge_2 adapt 0 atom charge v_charge_2 reset yes
fix 3 charge_3 adapt 0 atom charge v_charge_3 reset yes
fix 4 charge_4 adapt 0 atom charge v_charge_4 reset yes

#===========================================================
# RUN CONSTRAINED RELAXATION
#===========================================================

# SET OUTPUTS
thermo_style    custom step temp vol density etotal pe ebond eangle edihed ecoul elong evdwl enthalpy press
thermo_modify   format float %20.10f
thermo ${thermo_freq}
thermo 1000

# DECLARE RELEVANT OUTPUT VARIABLES
variable        my_step equal   step
variable        my_temp equal   temp
variable        my_rho  equal   density
variable        my_pe   equal   pe
variable        my_ebon equal   ebond
variable        my_eang equal   eangle
variable        my_edih equal   edihed
variable        my_evdw equal   evdwl
variable        my_eel  equal   (ecoul+elong)
variable        my_ent  equal   enthalpy
variable        my_P    equal   press
variable        my_vol  equal   vol

fix  averages all ave/time ${dump4avg} $(v_avg_freq/v_dump4avg) ${avg_freq} v_my_temp v_my_rho v_my_vol v_my_pe v_my_edih v_my_evdw v_my_eel v_my_ent v_my_P file thermo.avg
fix  averages all ave/time 100 $(v_avg_freq/v_dump4avg) ${avg_freq} v_my_temp v_my_rho v_my_vol v_my_pe v_my_edih v_my_evdw v_my_eel v_my_ent v_my_P file thermo.avg
fix  averages all ave/time 100 10 ${avg_freq} v_my_temp v_my_rho v_my_vol v_my_pe v_my_edih v_my_evdw v_my_eel v_my_ent v_my_P file thermo.avg
fix  averages all ave/time 100 10 1000 v_my_temp v_my_rho v_my_vol v_my_pe v_my_edih v_my_evdw v_my_eel v_my_ent v_my_P file thermo.avg

# INITIALIZE VELOCITIES AND CREATE THE CONSTRAINED RELAXATION FIX
velocity        all create ${ANNEAL_TEMP} ${vseed} mom yes rot yes     # DRAW VELOCITIES
velocity        all create 10.0 ${vseed} mom yes rot yes     
velocity        all create 10.0 37274 mom yes rot yes     

fix relax all nve/limit 0.01
run             10000
PPPM initialization ...
WARNING: Using 12-bit tables for long-range coulomb (../kspace.cpp:321)
  G vector (1/distance) = 0.156228
  grid = 10 10 10
  stencil order = 5
  estimated absolute RMS force accuracy = 0.0197678
  estimated relative force accuracy = 5.95301e-05
  using double precision FFTs
  3d grid and FFT values/proc = 512 40
Neighbor list info ...
  update every 1 steps, delay 0 steps, check no
  max neighbors/atom: 10000, page size: 100000
  master list distance cutoff = 16
  ghost atom cutoff = 16
  binsize = 8, bins = 6 6 6
  1 neighbor lists, perpetual/occasional/extra = 1 0 0
  (1) pair lj/cut/coul/long, perpetual
      attributes: half, newton on
      pair build: half/bin/newton
      stencil: half/bin/3d/newton
      bin: standard
WARNING: System is not charge neutral, net charge = -15.9979 (../kspace.cpp:302)
WARNING: Using kspace solver on system with no charge (../kspace.cpp:289)
Per MPI rank memory allocation (min/avg/max) = 8.528 | 8.817 | 9.271 Mbytes
Step Temp Volume Density TotEng PotEng E_bond E_angle E_dihed E_coul E_long E_vdwl Enthalpy Press 
       0        10.0000000000     88999.8354552273         0.0998385147       206.8189559765       176.9810473760       175.0902248725        91.9155565822       -43.5482769035         0.0000000000         0.0000000000       -46.4764571752     -3471.6137137525     -2833.9861142150 
    1000        28.5018603363     88999.8354552273         0.0998385147       -44.4252619041      -129.4688522700         6.8660434282        14.4308032091       -42.8049880940         0.0000000000         0.0000000000      -107.9607108133      -101.9779739003       -44.3405116463 
    2000        33.3668700719     88999.8354552273         0.0998385147      -199.6439890620      -299.2037510109         4.4979667747        12.1552836238       -39.5661684294         0.0000000000         0.0000000000      -276.2908329800       148.1470879081       267.9497414462 
    3000        35.1579530951     88999.8354552273         0.0998385147      -317.4782737533      -422.3822528567         2.6312860853        10.4301604296       -38.8433507212         0.0000000000         0.0000000000      -396.6003486504        59.2440004299       290.2392920595 
    4000        26.9829226993     88999.8354552273         0.0998385147      -417.9297999315      -498.4411980592         1.2616739616        10.5878560291       -38.2479685449         0.0000000000         0.0000000000      -472.0427595050      -472.7634916211       -42.2456885288 
    5000        22.4552537451     88999.8354552273         0.0998385147      -477.8107574378      -544.8125383225         1.1593004654        10.5093260583       -37.8119936665         0.0000000000         0.0000000000      -518.6691711797      -398.0421369913        61.4563818323 
    6000        21.2008757586     88999.8354552273         0.0998385147      -520.1622051990      -583.4211845126         0.9903455295        10.3585627743       -38.9281729162         0.0000000000         0.0000000000      -555.8419199002      -489.8732268894        23.3356300496 
    7000        17.4155729087     88999.8354552273         0.0998385147      -553.2593287313      -605.2237559989         0.8605296899        10.3412563257       -37.9683779541         0.0000000000         0.0000000000      -578.4571640603      -588.4285232257       -27.0955099071 
    8000        15.5434218559     88999.8354552273         0.0998385147      -574.5970280938      -620.9753481613         0.8052164926        10.2265631141       -39.6363293980         0.0000000000         0.0000000000      -592.3707983699      -544.8781409072        22.8964130049 
    9000        13.2903249255     88999.8354552273         0.0998385147      -591.9093221006      -631.5648721405         0.8815231562        10.2828359829       -39.2591354428         0.0000000000         0.0000000000      -603.4700958368      -543.8350261280        37.0380266460 
   10000        12.7876098337     88999.8354552273         0.0998385147      -602.0905638622      -640.2461172059         0.8143330145        10.1887237732       -39.4619280319         0.0000000000         0.0000000000      -611.7872459617      -560.9995083359        31.6579073849 
Loop time of 14.3671 on 64 procs for 10000 steps with 1002 atoms

Performance: 60.137 ns/day, 0.399 hours/ns, 696.032 timesteps/s
97.7% CPU use with 64 MPI tasks x no OpenMP threads

MPI task timing breakdown:
Section |  min time  |  avg time  |  max time  |%varavg| %total
---------------------------------------------------------------
Pair    | 0.0023527  | 0.59742    | 7.6014     | 175.9 |  4.16
Bond    | 0.0012503  | 0.04103    | 0.29623    |  34.2 |  0.29
Kspace  | 0.00040269 | 0.00050308 | 0.00081682 |   0.0 |  0.00
Neigh   | 5.3972     | 5.4263     | 5.4525     |   0.5 | 37.77
Comm    | 0.98062    | 8.224      | 8.8688     |  49.2 | 57.24
Output  | 0.0012407  | 0.0016698  | 0.0016863  |   0.1 |  0.01
Modify  | 0.0093484  | 0.06617    | 0.1351     |  19.0 |  0.46
Other   |            | 0.009988   |            |       |  0.07

Nlocal:    15.6562 ave 151 max 0 min
Histogram: 52 3 3 0 0 2 0 0 0 4
Nghost:    891.969 ave 978 max 778 min
Histogram: 2 2 2 11 7 4 13 17 3 3
Neighs:    4936.02 ave 75097 max 0 min
Histogram: 56 2 1 1 1 1 0 1 0 1

Total # of neighbors = 315905
Ave neighs/atom = 315.274
Ave special neighs/atom = 5
Neighbor list builds = 10000
Dangerous builds not checked
unfix relax

#===========================================================
# RESHAPE BOX FOR CONSTANT DENSITY NVT
#===========================================================
fix dynamics all nvt temp ${ANNEAL_TEMP} ${ANNEAL_TEMP} 100.0
fix dynamics all nvt temp 10.0 ${ANNEAL_TEMP} 100.0
fix dynamics all nvt temp 10.0 10.0 100.0
velocity all create ${ANNEAL_TEMP} ${vseed} mom yes rot yes
velocity all create 10.0 ${vseed} mom yes rot yes
velocity all create 10.0 37274 mom yes rot yes
fix mom all momentum 100 linear 1 1 1 angular

fix reshape  all deform 1 x final -11.611702913823104 11.611702913823104 y final -11.611702913823104 11.611702913823104 z final -11.611702913823104 11.611702913823104 units box
run             10000
PPPM initialization ...
WARNING: Using 12-bit tables for long-range coulomb (../kspace.cpp:321)
  G vector (1/distance) = 0.156228
  grid = 10 10 10
  stencil order = 5
  estimated absolute RMS force accuracy = 0.0197678
  estimated relative force accuracy = 5.95301e-05
  using double precision FFTs
  3d grid and FFT values/proc = 512 40
Per MPI rank memory allocation (min/avg/max) = 8.529 | 8.851 | 9.287 Mbytes
Step Temp Volume Density TotEng PotEng E_bond E_angle E_dihed E_coul E_long E_vdwl Enthalpy Press 
   10000        10.0000000000     88999.8354552273         0.0998385147      -610.4082086054      -640.2461172059         0.8143330145        10.1887237732       -39.4619280319         0.0000000000         0.0000000000      -611.7872459617      -574.8622495746        27.3857817594 
   11000         9.9819833582     76792.8394411798         0.1157088532      -628.3241969198      -658.1083476293         3.8199315184        13.4367891446       -40.0224984876         0.0000000000         0.0000000000      -635.3425698047      -632.9551134859        -4.1349507486 
   12000        10.7300962822     65756.4024739899         0.1351292201      -629.7816372268      -661.7980004410         3.5875267578        13.3909055158       -40.0301599902         0.0000000000         0.0000000000      -638.7462727243      -628.7829265142         1.0414196645 
   13000         9.6323769552     55831.5242834630         0.1591504351      -634.1188768397      -662.8598751591         3.2228379241        12.8347343565       -40.3630031468         0.0000000000         0.0000000000      -638.5544442929      -665.1689533711       -38.1335555622 
   14000        10.0324328022     46959.2045994046         0.1892198017      -632.8258112239      -662.7604925231         3.3151348548        12.7945264214       -39.4558975221         0.0000000000         0.0000000000      -639.4142562772      -632.7850946160         0.0594531634 
   15000         9.3129179276     39080.4431516202         0.2273672115      -637.1867951187      -664.9745945116         3.0458863774        12.7493656901       -40.0226450910         0.0000000000         0.0000000000      -640.7472014881      -653.0458757223       -27.8254782355 
   16000        10.2178087272     32136.2396699152         0.2764981676      -636.7337501896      -667.2215544796         3.1552126329        12.7978101635       -40.0975929960         0.0000000000         0.0000000000      -643.0769842801      -650.1848515171       -28.7003304526 
   17000         9.8603442200     26067.5938840953         0.3408681071      -640.3204988771      -669.7417038377         2.7765902575        12.6584335684       -40.1453873737         0.0000000000         0.0000000000      -645.0313402900      -618.2893257331        57.9509804316 
   18000        10.5431478791     20815.5055239657         0.4268746379      -648.0530249598      -679.5115732375         2.9388294028        12.5730277536       -40.3085696953         0.0000000000         0.0000000000      -654.7148606986      -704.6150990375      -186.3212865121 
   19000        10.4372272354     16320.9743193321         0.5444289789      -682.2290218019      -713.3715250312         2.3346222180        11.9425788101       -39.9357156560         0.0000000000         0.0000000000      -687.7130104032      -666.7730591063        64.9342890687 
   20000        11.2388095150     12525.0000000000         0.7094300506      -707.8950197842      -741.4292768930         1.8093003248        11.2312452217       -39.2948264072         0.0000000000         0.0000000000      -715.1749960322      -412.0735181382      1619.4819553522 
Loop time of 12.3479 on 64 procs for 10000 steps with 1002 atoms

Performance: 69.971 ns/day, 0.343 hours/ns, 809.855 timesteps/s
98.1% CPU use with 64 MPI tasks x no OpenMP threads

MPI task timing breakdown:
Section |  min time  |  avg time  |  max time  |%varavg| %total
---------------------------------------------------------------
Pair    | 0.0062435  | 0.93149    | 6.1341     | 124.5 |  7.54
Bond    | 0.0028963  | 0.043085   | 0.18925    |  23.8 |  0.35
Kspace  | 0.00043774 | 0.00059755 | 0.0011837  |   0.0 |  0.00
Neigh   | 3.9443     | 4.2568     | 4.4626     |   6.2 | 34.47
Comm    | 1.4319     | 5.2092     | 7.4115     |  55.0 | 42.19
Output  | 0.00059128 | 0.0006282  | 0.00071096 |   0.0 |  0.01
Modify  | 0.095374   | 1.866      | 5.2501     | 122.2 | 15.11
Other   |            | 0.04       |            |       |  0.32

Nlocal:    15.6562 ave 26 max 0 min
Histogram: 3 5 4 3 5 5 9 12 15 3
Nghost:    4305.34 ave 4968 max 3666 min
Histogram: 2 6 7 10 11 9 5 4 4 6
Neighs:    10762.4 ave 20773 max 0 min
Histogram: 4 5 5 7 10 9 6 6 7 5

Total # of neighbors = 688795
Ave neighs/atom = 687.42
Ave special neighs/atom = 5
Neighbor list builds = 10000
Dangerous builds not checked
unfix dynamics
unfix reshape
unfix mom

#===========================================================
# RUN RAMPED ANNEAL
#===========================================================

# REINITIALIZE THE VELOCITIES AND CREATE THE ANNEALING FIX
velocity        all create ${ANNEAL_TEMP} ${vseed} mom yes rot yes     # DRAW VELOCITIES
velocity        all create 10.0 ${vseed} mom yes rot yes     
velocity        all create 10.0 37274 mom yes rot yes     

fix mom all momentum 1000 linear 1 1 1 angular # Zero out system linear and angular momentum every ps
fix anneal all nvt temp ${ANNEAL_TEMP} ${FINAL_TEMP} 100.0 # NVT, nose-hoover 100 fs T relaxation
fix anneal all nvt temp 10.0 ${FINAL_TEMP} 100.0 
fix anneal all nvt temp 10.0 298.0 100.0 

# CREATE COORDINATE DUMPS FOR ANNEAL
dump anneal all custom ${coords_freq} anneal.lammpstrj id type x y z mol
dump anneal all custom 1000 anneal.lammpstrj id type x y z mol
dump_modify anneal sort id format float %20.10g

# RUN RAMPED ANNEAL
run ${nSteps_ramp}
run 50000
PPPM initialization ...
WARNING: Using 12-bit tables for long-range coulomb (../kspace.cpp:321)
  G vector (1/distance) = 0.184168
  grid = 8 8 8
  stencil order = 5
  estimated absolute RMS force accuracy = 0.00816917
  estimated relative force accuracy = 2.46012e-05
  using double precision FFTs
  3d grid and FFT values/proc = 343 8
Per MPI rank memory allocation (min/avg/max) = 9.93 | 10.32 | 10.67 Mbytes
Step Temp Volume Density TotEng PotEng E_bond E_angle E_dihed E_coul E_long E_vdwl Enthalpy Press 
   20000        10.0000000000     12525.0000000000         0.7094300506      -711.5117706057      -741.3496792062         1.9022635531        11.2312452217       -39.2948264072         0.0000000000         0.0000000000      -715.1883615738      -389.8389587106      1761.0055776638 
   21000        14.8511967464     12525.0000000000         0.7094300506      -691.5995742398      -735.9124393525         6.3979125200        16.3080657786       -39.9825315799         0.0000000000         0.0000000000      -718.6358860712      -805.2602786620      -622.2382714585 
   22000        20.8610547873     12525.0000000000         0.7094300506      -659.4468182441      -721.6918428494         8.0011144843        19.2369605056       -37.4459069894         0.0000000000         0.0000000000      -711.4840108498      -802.2697811731      -781.8877599718 
   23000        26.5241138365     12525.0000000000         0.7094300506      -624.1258385853      -703.2682470215        11.1221659760        22.5951459032       -35.5074454566         0.0000000000         0.0000000000      -701.4781134441      -766.3630490913      -778.6810441850 
   24000        31.9227045785     12525.0000000000         0.7094300506      -591.6657767504      -686.9164508999        13.7635265329        25.0865175158       -32.6468515534         0.0000000000         0.0000000000      -693.1196433953      -754.8448609599      -893.3278375563 
   25000        38.7779655356     12525.0000000000         0.7094300506      -553.1683288221      -668.8736679586        16.9723028367        27.5520651737       -30.8316520301         0.0000000000         0.0000000000      -682.5663839390      -686.0787288999      -727.6211952376 
   26000        43.6209275173     12525.0000000000         0.7094300506      -509.1864837673      -639.3422086003        18.9114856187        32.3530197954       -27.8329018537         0.0000000000         0.0000000000      -662.7738121607      -658.5193462952      -817.5263625513 
   27000        50.6989209388     12525.0000000000         0.7094300506      -469.2405651915      -620.5155421030        22.1265010514        34.7336039402       -24.6785374750         0.0000000000         0.0000000000      -652.6971096196      -674.3880264409     -1123.0847312688 
   28000        55.3445283574     12525.0000000000         0.7094300506      -434.2912636147      -599.4277614814        24.6962947711        40.6309759817       -21.8131423996         0.0000000000         0.0000000000      -642.9418898347      -573.7310084308      -763.3662507018 
   29000        59.9657711465     12525.0000000000         0.7094300506      -395.2342963699      -574.1596162327        27.6596931040        41.7673287420       -18.7758441193         0.0000000000         0.0000000000      -624.8107939593      -480.0762389751      -464.4692638690 
   30000        69.6340084602     12525.0000000000         0.7094300506      -365.2056899166      -572.9790079089        27.5552324675        47.2981142181       -18.6517108995         0.0000000000         0.0000000000      -629.1806436950      -768.9266914929     -2210.1803736766 
   31000        72.6103153658     12525.0000000000         0.7094300506      -315.8195056099      -532.4735009438        34.4831394072        52.3298514345       -18.2611920631         0.0000000000         0.0000000000      -601.0252997225      -449.4566552041      -731.5998030173 
   32000        75.8493275039     12525.0000000000         0.7094300506      -283.4736413684      -509.7921715155        35.5773456364        57.8467180701       -13.5564500171         0.0000000000         0.0000000000      -589.6597852049      -382.6005972377      -542.6729139903 
   33000        86.7477463425     12525.0000000000         0.7094300506      -248.9703919115      -507.8075245781        36.5278624193        58.0865190375       -17.4209069527         0.0000000000         0.0000000000      -585.0009990822      -299.1835409072      -274.8930969100 
   34000        91.5005271553     12525.0000000000         0.7094300506      -204.6347839312      -477.6532205470        42.5584643034        63.1485556966       -13.3431457650         0.0000000000         0.0000000000      -570.0170947819      -281.6175042625      -421.4437617171 
   35000        98.8841212780     12525.0000000000         0.7094300506      -169.1585133438      -464.2080506172        45.7717114547        66.0565981585       -11.4900047062         0.0000000000         0.0000000000      -564.5463555242      -214.3399747694      -247.3470017832 
   36000       100.8242040947     12525.0000000000         0.7094300506      -146.5434192718      -447.3817579215        50.4544360626        73.3669781046         0.5249041895         0.0000000000         0.0000000000      -571.7280762783      -275.5427364032      -706.2098771881 
   37000       108.8565616121     12525.0000000000         0.7094300506      -124.4950880423      -449.3003016369        47.4200587732        76.5234048520        -2.0879410806         0.0000000000         0.0000000000      -571.1558241814      -150.0178296787      -139.7248655063 
   38000       110.4582603505     12525.0000000000         0.7094300506      -107.5298116510      -437.1141593019        49.6687447593        76.7340868441        -1.8700180755         0.0000000000         0.0000000000      -561.6469728297       -19.0058911083       484.6263410140 
   39000       121.5468293567     12525.0000000000         0.7094300506       -58.3512985281      -421.0216170306        57.6659683645        81.9721542152        -5.1406570185         0.0000000000         0.0000000000      -555.5190825920        71.1128260444       708.7544767501 
   40000       122.9502533914     12525.0000000000         0.7094300506       -38.5993641547      -405.4572064649        59.4394621152        88.6410094925         1.4070261340         0.0000000000         0.0000000000      -554.9447042065       158.5481617966      1079.2888922680 
   41000       129.0434525851     12525.0000000000         0.7094300506        -2.4374285571      -387.4761029298        60.8997940747        99.5606333951        -0.7553831030         0.0000000000         0.0000000000      -547.1811472966        78.8966336330       445.2652878151 
   42000       132.9262422761     12525.0000000000         0.7094300506        10.9665236238      -385.6575831404        65.2089447908        94.5614630579         2.5006314578         0.0000000000         0.0000000000      -547.9286224469       168.2916299935       861.2800944890 
   43000       141.5331352243     12525.0000000000         0.7094300506        64.3045191077      -358.0007561688        72.3131800931       110.4524449029         0.3325845662         0.0000000000         0.0000000000      -541.0989657310       202.2364767500       755.1118334031 
   44000       150.7682231331     12525.0000000000         0.7094300506       115.4954395826      -334.3654065879        81.7759624681       113.4929576479        13.2511246702         0.0000000000         0.0000000000      -542.8854513742       184.6671760728       378.6823420302 
   45000       161.7770772055     12525.0000000000         0.7094300506       144.8090077439      -337.8999565873        79.8893572066       116.4332572076         3.2141092899         0.0000000000         0.0000000000      -537.4366802914       388.1866555840      1332.3768110836 
   46000       156.0156112322     12525.0000000000         0.7094300506       142.3844588268      -323.1334959929        84.1531928706       124.2671076962        12.4453626074         0.0000000000         0.0000000000      -543.9991591671       389.6104084127      1353.4444319341 
   47000       166.8193551842     12525.0000000000         0.7094300506       198.6233585327      -299.1307087452        88.3891487570       136.8341300583        10.9643934820         0.0000000000         0.0000000000      -535.3183810424       576.9468827951      2071.1412707294 
   48000       174.5459100567     12525.0000000000         0.7094300506       223.0813942659      -297.7270968203        93.9985629311       141.6442426833        11.7317832969         0.0000000000         0.0000000000      -545.1016857316       537.9431977795      1723.7185477818 
   49000       170.4554681735     12525.0000000000         0.7094300506       226.5667776028      -282.0366903787        94.0739582355       149.3906033889         4.8055642384         0.0000000000         0.0000000000      -530.3068162415       460.2200682669      1279.1405828644 
   50000       183.6091555309     12525.0000000000         0.7094300506       269.0092231617      -278.8420969329        97.5373359179       148.3466773046        11.7787681276         0.0000000000         0.0000000000      -536.5048782829       630.6960440366      1980.0632362303 
   51000       189.4123505518     12525.0000000000         0.7094300506       294.1988482034      -270.9679921535       104.5146607051       162.9497053289         7.3169678008         0.0000000000         0.0000000000      -545.7493259883       705.2553727945      2250.3388715864 
   52000       199.3475616669     12525.0000000000         0.7094300506       344.0481530547      -250.7632794204       107.1306777584       163.5702203900         7.4722570620         0.0000000000         0.0000000000      -528.9364346308       757.4493611968      2263.1748983144 
   53000       194.1273269669     12525.0000000000         0.7094300506       336.5199006949      -242.7154431949       111.4426805595       169.5418347233        14.9585922420         0.0000000000         0.0000000000      -538.6585507197       791.4068313870      2490.2894883654 
   54000       198.1757350840     12525.0000000000         0.7094300506       367.9640227615      -223.3509242659       111.9650180824       178.6829820489        15.1830143748         0.0000000000         0.0000000000      -529.1819387720       498.8544384525       716.5627419256 
   55000       210.8518128960     12525.0000000000         0.7094300506       427.9831495145      -201.1545626296       125.1446855735       194.5797304179         5.5624551997         0.0000000000         0.0000000000      -526.4414338207       801.5482341638      2045.0910781429 
   56000       223.4433152080     12525.0000000000         0.7094300506       471.7181913438      -194.9899303130       129.0158947025       193.4869293171        14.8596934903         0.0000000000         0.0000000000      -532.3524478228       777.2312614690      1672.5386810593 
   57000       228.9582375790     12525.0000000000         0.7094300506       514.7766094316      -168.3868871899       140.4551950131       196.6448527834        10.7400634021         0.0000000000         0.0000000000      -516.2269983884      1153.4654920474      3496.5177133002 
   58000       226.7531341470     12525.0000000000         0.7094300506       515.7594511660      -160.8244779894       143.8045251995       206.5700329503         9.8300821607         0.0000000000         0.0000000000      -521.0291182998       859.1990703474      1880.1684898585 
   59000       232.9521605793     12525.0000000000         0.7094300506       537.9428614707      -157.1376660947       147.5768838861       210.2434012167         6.9392519592         0.0000000000         0.0000000000      -521.8972031567       737.5015888550      1092.4890727472 
   60000       244.0674301239     12525.0000000000         0.7094300506       584.4247371512      -143.8214300884       142.1824369243       226.6631282558         7.4848930822         0.0000000000         0.0000000000      -520.1518883507      1024.8156789089      2410.9308468407 
   61000       255.7948973105     12525.0000000000         0.7094300506       670.6008595525       -92.6376170900       172.2317721288       241.3324782759        17.2732673990         0.0000000000         0.0000000000      -523.4751348936      1172.3655417944      2746.9228714016 
   62000       245.3827020757     12525.0000000000         0.7094300506       651.8509245634       -80.3197391044       171.8552450408       234.9286540945        25.0450020515         0.0000000000         0.0000000000      -512.1486402911      1328.1205788281      3702.2545553315 
   63000       259.5028027476     12525.0000000000         0.7094300506       682.3148114431       -91.9872795527       167.6211861096       245.7161352212        14.4720813322         0.0000000000         0.0000000000      -519.7966822157       909.2857860717      1242.5580823386 
   64000       260.2070746102     12525.0000000000         0.7094300506       700.3063024621       -76.0971884802       164.6461322874       263.9621230470        13.1472274731         0.0000000000         0.0000000000      -517.8526712876      1161.0966077799      2522.6076553301 
   65000       264.9406265003     12525.0000000000         0.7094300506       747.7366866024       -42.7907332052       202.0643294110       262.2417445015        17.6505883412         0.0000000000         0.0000000000      -524.7473954589       917.1389648730       927.3968637448 
   66000       264.8811631268     12525.0000000000         0.7094300506       755.4923642113       -34.8576293259       200.4773784004       262.1316574397        11.1467458500         0.0000000000         0.0000000000      -508.6134110160       953.3494404418      1083.1733424077 
   67000       279.6018895136     12525.0000000000         0.7094300506       788.8269953009       -45.4465670824       197.6204104344       262.6990580685        13.2855482947         0.0000000000         0.0000000000      -519.0515838799      1310.7076138952      2857.0480507965 
   68000       284.9325784710     12525.0000000000         0.7094300506       849.9935168378        -0.1857065345       208.6971228710       288.4722678798        15.5113289552         0.0000000000         0.0000000000      -512.8664262405      1177.1059533671      1790.7849341001 
   69000       286.9731156588     12525.0000000000         0.7094300506       855.7672180906        -0.5005414922       204.2961809256       297.2081391564        11.3840249665         0.0000000000         0.0000000000      -513.3888865408       873.2339160369        95.6218597576 
   70000       284.9476122958     12525.0000000000         0.7094300506       886.0550216642        35.8309405028       218.5966026215       309.7426766646        14.3464599224         0.0000000000         0.0000000000      -506.8547987057      1654.3977723239      4206.3109452678 
Loop time of 50.2922 on 64 procs for 50000 steps with 1002 atoms

Performance: 85.898 ns/day, 0.279 hours/ns, 994.190 timesteps/s
99.2% CPU use with 64 MPI tasks x no OpenMP threads

MPI task timing breakdown:
Section |  min time  |  avg time  |  max time  |%varavg| %total
---------------------------------------------------------------
Pair    | 5.5031     | 8.7995     | 12.734     |  67.3 | 17.50
Bond    | 0.19031    | 0.24737    | 0.28279    |   3.9 |  0.49
Kspace  | 0.0023918  | 0.0027827  | 0.0037334  |   0.6 |  0.01
Neigh   | 18.019     | 19.228     | 19.668     |   8.6 | 38.23
Comm    | 17.034     | 21.139     | 25.184     |  45.7 | 42.03
Output  | 0.030198   | 0.030285   | 0.030701   |   0.0 |  0.06
Modify  | 0.36675    | 0.42067    | 0.48072    |   4.2 |  0.84
Other   |            | 0.4247     |            |       |  0.84

Nlocal:    15.6562 ave 22 max 9 min
Histogram: 2 1 7 12 8 11 13 3 3 4
Nghost:    4313.39 ave 4373 max 4266 min
Histogram: 5 6 10 8 11 7 6 5 3 3
Neighs:    10733.6 ave 18286 max 4474 min
Histogram: 3 7 6 10 13 9 7 5 2 2

Total # of neighbors = 686949
Ave neighs/atom = 685.578
Ave special neighs/atom = 5
Neighbor list builds = 50000
Dangerous builds not checked
unfix anneal

# RUN EQUILIBRATION PHASE AT FINAL TEMP
fix anneal all nvt temp ${FINAL_TEMP} ${FINAL_TEMP} 100.0 # NVT, nose-hoover 100 fs T relaxation
fix anneal all nvt temp 298.0 ${FINAL_TEMP} 100.0 
fix anneal all nvt temp 298.0 298.0 100.0 
run ${nSteps_ramp}
run 50000
PPPM initialization ...
WARNING: Using 12-bit tables for long-range coulomb (../kspace.cpp:321)
  G vector (1/distance) = 0.184168
  grid = 8 8 8
  stencil order = 5
  estimated absolute RMS force accuracy = 0.00816917
  estimated relative force accuracy = 2.46012e-05
  using double precision FFTs
  3d grid and FFT values/proc = 343 8
Per MPI rank memory allocation (min/avg/max) = 10.64 | 10.66 | 10.67 Mbytes
Step Temp Volume Density TotEng PotEng E_bond E_angle E_dihed E_coul E_long E_vdwl Enthalpy Press 
   70000       284.9476122958     12525.0000000000         0.7094300506       886.0550216642        35.8309405028       218.5966026215       309.7426766646        14.3464599224         0.0000000000         0.0000000000      -506.8547987057      1654.3977723239      4206.3109452678 
   71000       290.4580887011     12525.0000000000         0.7094300506       893.9736549107        27.3074646167       224.0608790083       277.3116583382        25.5715817823         0.0000000000         0.0000000000      -499.6366545121      1169.4340299039      1508.0144757356 
   72000       302.8989929656     12525.0000000000         0.7094300506       932.5754708020        28.7882240729       209.5685580255       319.7495546383        11.2203635967         0.0000000000         0.0000000000      -511.7502521877      1775.4976325845      4614.5977326788 
   73000       309.8952720456     12525.0000000000         0.7094300506       994.0325261410        69.3698458385       227.7711521031       318.5400123079        19.8933266267         0.0000000000         0.0000000000      -496.8346451992      1502.7434697054      2784.9503467759 
   74000       287.0534141099     12525.0000000000         0.7094300506       934.9516709787        78.4443176114       236.0212710004       325.6125645830        14.9858032733         0.0000000000         0.0000000000      -498.1753212454      1403.5806615349      2565.5207269852 
   75000       294.4383384959     12525.0000000000         0.7094300506       920.0036648908        41.4612416385       232.7309316435       312.4643492638        13.6015864771         0.0000000000         0.0000000000      -517.3356257460      1485.2998192113      3094.7274496885 
   76000       303.3293054976     12525.0000000000         0.7094300506       963.5231172372        58.4519079081       254.6612129098       303.7707464224        14.9865892768         0.0000000000         0.0000000000      -514.9666407008      1089.2920155037       688.5248710925 
   77000       295.5060226709     12525.0000000000         0.7094300506       916.6531598126        34.9249902774       235.7673892184       304.2864283270        12.8961191733         0.0000000000         0.0000000000      -518.0249464414      1511.5621152544      3256.8434446266 
   78000       291.9331134638     12525.0000000000         0.7094300506       905.1335958765        34.0662401771       231.0336801180       310.9855059041        19.2503048092         0.0000000000         0.0000000000      -527.2032506543      1184.3023074632      1528.3158539793 
   79000       288.8684158036     12525.0000000000         0.7094300506       912.4696434342        50.5467046023       246.5238519969       303.9744697233        15.7554204337         0.0000000000         0.0000000000      -515.7070375517      1094.8848146275       998.6362603339 
   80000       302.5266992109     12525.0000000000         0.7094300506       947.9379419823        45.2615419556       246.3602459213       308.0411932450        16.5467879302         0.0000000000         0.0000000000      -525.6866851409      1484.7768960782      2938.9378197700 
   81000       306.3715358634     12525.0000000000         0.7094300506       938.4451956287        24.2966071400       226.4828922567       311.9883571461        13.7939811196         0.0000000000         0.0000000000      -527.9686233824      1229.9679438669      1595.9483259989 
   82000       292.4997978424     12525.0000000000         0.7094300506       908.9180922464        36.1598688777       246.2973012035       305.1694758952         9.8696132226         0.0000000000         0.0000000000      -525.1765214435      1295.0168283359      2113.7068556611 
   83000       295.3201177834     12525.0000000000         0.7094300506       937.5189797339        56.3455115028       237.1775015110       328.2830623624        11.0052669104         0.0000000000         0.0000000000      -520.1203192810      1225.5347403684      1576.7492376626 
   84000       301.2480243843     12525.0000000000         0.7094300506       990.0246129320        91.1635111659       262.8340026378       325.2467892668        17.0618382682         0.0000000000         0.0000000000      -513.9791190068      1358.5090538645      2017.2769714092 
   85000       301.0649154471     12525.0000000000         0.7094300506       975.5928924757        77.2781494830       252.7683920937       327.7575123563        12.2000793183         0.0000000000         0.0000000000      -515.4478342853       835.6676644565      -766.0240402226 
   86000       303.3529766114     12525.0000000000         0.7094300506       984.2810540622        79.1392150800       245.1987443798       334.7652220899        24.6085061552         0.0000000000         0.0000000000      -525.4332575450      1629.4199438917      3531.8284335706 
   87000       293.0406474012     12525.0000000000         0.7094300506       951.2557872178        76.8837818791       246.8997280344       321.3642145257        25.3381630096         0.0000000000         0.0000000000      -516.7183236907      1113.8702657925       890.2368903724 
   88000       296.7489869093     12525.0000000000         0.7094300506       936.8716269839        51.4347121149       259.2067027768       307.1198157139        15.8546441180         0.0000000000         0.0000000000      -530.7464504938      1704.5544429049      4202.6981166019 
   89000       289.2157191910     12525.0000000000         0.7094300506       949.5862276385        86.6270081337       249.0940610721       346.7536185806        20.4446296399         0.0000000000         0.0000000000      -529.6653011589      1217.3583909927      1465.9251754349 
   90000       290.8979039252     12525.0000000000         0.7094300506       938.4340517892        70.4555448494       246.9363193417       336.9475375420        12.6004943595         0.0000000000         0.0000000000      -526.0288063938      1519.1249174087      3179.0061685033 
   91000       301.2854953646     12525.0000000000         0.7094300506       961.2181894871        62.2452821525       255.7812157637       311.4840997796        16.3584736282         0.0000000000         0.0000000000      -521.3785070191      1478.1191442595      2829.7867609363 
   92000       298.8826582777     12525.0000000000         0.7094300506       936.2425517193        44.4392077230       243.6792825354       306.4706888566        13.9565657215         0.0000000000         0.0000000000      -519.6673293906      1277.8942107982      1870.3802590943 
   93000       304.5134449061     12525.0000000000         0.7094300506       960.8166291995        52.2121955265       258.4676525656       301.3534479951        10.7094673139         0.0000000000         0.0000000000      -518.3183723481      1348.0177364239      2119.7418130635 
   94000       309.5728312097     12525.0000000000         0.7094300506       996.9813459052        73.2807616218       258.2439713079       310.5433032348        15.3788293333         0.0000000000         0.0000000000      -510.8853422542      1644.9886557648      3547.5316683022 
   95000       294.7055201532     12525.0000000000         0.7094300506       947.2783939967        67.9387565574       252.5343558263       323.0954975107         8.3316469823         0.0000000000         0.0000000000      -516.0227437620      1172.2577535886      1231.6549377187 
   96000       293.2968520022     12525.0000000000         0.7094300506       970.0363671716        94.8999008861       255.0547469943       337.4978899700        16.4717756507         0.0000000000         0.0000000000      -514.1245117290      1797.2956733952      4528.8510516372 
   97000       304.0193696358     12525.0000000000         0.7094300506       933.0091513370        25.8789349396       237.5520234511       299.1958334379        10.6429090766         0.0000000000         0.0000000000      -521.5118310259      1239.6129165245      1678.5097175201 
   98000       304.7135326565     12525.0000000000         0.7094300506       931.9188809664        22.7174272925       246.0492733760       296.7180787443         8.3005834870         0.0000000000         0.0000000000      -528.3505083148      1120.9154911666      1034.6665071295 
   99000       284.0878650176     12525.0000000000         0.7094300506       907.9128871181        60.2541120273       246.4059715286       320.3865611644        21.2442617457         0.0000000000         0.0000000000      -527.7826824114       865.6033458930      -231.6246052842 
  100000       307.3729297417     12525.0000000000         0.7094300506       955.6866775237        38.5501391337       242.0967625256       303.7208234247         9.6251408687         0.0000000000         0.0000000000      -516.8925876853      1406.1987458973      2466.3391989420 
  101000       312.2136477556     12525.0000000000         0.7094300506       996.1965461109        64.6163175549       256.6277456325       323.5945306072         6.8199620150         0.0000000000         0.0000000000      -522.4259206997      1570.2524352825      3142.6828296941 
  102000       310.2153259096     12525.0000000000         0.7094300506       959.0443051356        33.4266510391       249.8674243924       308.2182782438        10.3167019494         0.0000000000         0.0000000000      -534.9757535464       794.8361627317      -898.9614414955 
  103000       309.4854427476     12525.0000000000         0.7094300506       972.3777986055        48.9379632167       251.6175682679       311.1123722072        10.5983472383         0.0000000000         0.0000000000      -524.3903244966      1288.4778404796      1730.4973135919 
  104000       293.3801653343     12525.0000000000         0.7094300506       953.5611797839        78.1761239394       262.5365817780       319.1529487571        15.2576011207         0.0000000000         0.0000000000      -518.7710077164      1427.7077752347      2595.7269882403 
  105000       284.3486566303     12525.0000000000         0.7094300506       895.4041379326        46.9672152117       248.8901711802       301.1699532550        19.9531060660         0.0000000000         0.0000000000      -523.0460152896      1189.6009033125      1610.5872974237 
  106000       297.1518405194     12525.0000000000         0.7094300506       921.6531716486        35.0142258599       235.0987671068       311.1594262767        18.7260130113         0.0000000000         0.0000000000      -529.9699805349      1735.4147170401      4454.9572339677 
  107000       306.7744261258     12525.0000000000         0.7094300506       963.0349070659        47.6841782947       247.5982674517       310.7205758382        17.6179391554         0.0000000000         0.0000000000      -528.2526041506      1529.6368013903      3101.8757548758 
  108000       317.6679473103     12525.0000000000         0.7094300506      1018.7568518108        70.9021340954       251.6292164757       311.6674474320        13.3523847235         0.0000000000         0.0000000000      -505.7469145358      1432.5395429420      2265.2633361515 
  109000       300.0983033932     12525.0000000000         0.7094300506       938.5803494221        43.1497746411       233.8938921280       312.8636320409        15.3340658073         0.0000000000         0.0000000000      -518.9418153351      1358.9012578757      2301.0569647921 
  110000       292.8818580861     12525.0000000000         0.7094300506       901.7946277331        27.8964165015       230.3043650635       298.5614128140        14.2292634208         0.0000000000         0.0000000000      -515.1986247968      1600.7886329559      3826.6595634835 
  111000       295.5360178823     12525.0000000000         0.7094300506       904.1235024207        22.3058334480       224.7023427103       311.9090762899         9.0839722625         0.0000000000         0.0000000000      -523.3895578147      1134.8315094622      1263.0165565387 
  112000       302.8725914097     12525.0000000000         0.7094300506       955.9147849819        52.2063149740       252.6425596682       303.2729362106        10.7408611453         0.0000000000         0.0000000000      -514.4500420501      1647.2910117724      3784.9558514734 
  113000       297.6345754965     12525.0000000000         0.7094300506       958.6036175250        70.5242915238       242.8639012192       319.2311742264        15.7900325652         0.0000000000         0.0000000000      -507.3608164871      1410.9639918854      2476.4577947065 
  114000       296.2908825046     12525.0000000000         0.7094300506       915.5228142277        31.4527870944       252.8922907885       282.5199404253         6.8089294328         0.0000000000         0.0000000000      -510.7683735523       848.6124550582      -366.3023772717 
  115000       288.7974742919     12525.0000000000         0.7094300506       908.1585315632        46.4472673656       252.0074557710       300.9428861995         9.8956944251         0.0000000000         0.0000000000      -516.3987690301      1201.4319731644      1605.5325390966 
  116000       284.0886241588     12525.0000000000         0.7094300506       918.5559418310        70.8949016220       254.5883546691       315.5961417525        12.1133471806         0.0000000000         0.0000000000      -511.4029419803      1626.7118456917      3876.8165988517 
  117000       292.6163239992     12525.0000000000         0.7094300506       911.7751058687        38.6691928183       251.7110337325       291.2939606435        14.9359579415         0.0000000000         0.0000000000      -519.2717594992      1128.1354537267      1184.4699498181 
  118000       302.7106197844     12525.0000000000         0.7094300506       957.8720308415        54.6468502888       257.0081912195       312.7605449202        10.8570875636         0.0000000000         0.0000000000      -525.9789734146       859.0534359494      -540.9847843736 
  119000       308.3023402077     12525.0000000000         0.7094300506       980.5694290190        60.6597241753       245.0314254728       317.6098856490        13.6582814934         0.0000000000         0.0000000000      -515.6398684399      1252.4036453056      1488.1629823185 
  120000       297.8049897750     12525.0000000000         0.7094300506       951.0279245054        62.4401179376       244.1854420969       327.5262438616         8.0269937644         0.0000000000         0.0000000000      -517.2985617853      1279.8199969811      1799.9801416541 
Loop time of 50.255 on 64 procs for 50000 steps with 1002 atoms

Performance: 85.962 ns/day, 0.279 hours/ns, 994.925 timesteps/s
99.3% CPU use with 64 MPI tasks x no OpenMP threads

MPI task timing breakdown:
Section |  min time  |  avg time  |  max time  |%varavg| %total
---------------------------------------------------------------
Pair    | 5.7389     | 8.921      | 12.51      |  65.7 | 17.75
Bond    | 0.23006    | 0.25133    | 0.28776    |   2.3 |  0.50
Kspace  | 0.0024073  | 0.0028315  | 0.0036066  |   0.5 |  0.01
Neigh   | 17.908     | 19.289     | 19.632     |   9.1 | 38.38
Comm    | 17.137     | 20.925     | 25.434     |  44.7 | 41.64
Output  | 0.028038   | 0.028114   | 0.028526   |   0.0 |  0.06
Modify  | 0.36875    | 0.41113    | 0.45427    |   3.1 |  0.82
Other   |            | 0.4265     |            |       |  0.85

Nlocal:    15.6562 ave 22 max 9 min
Histogram: 4 4 0 14 12 4 12 5 5 4
Nghost:    4311.25 ave 4402 max 4237 min
Histogram: 5 7 7 12 8 5 9 4 4 3
Neighs:    10742.6 ave 19220 max 4746 min
Histogram: 6 9 8 9 11 5 8 3 3 2

Total # of neighbors = 687529
Ave neighs/atom = 686.157
Ave special neighs/atom = 5
Neighbor list builds = 50000
Dangerous builds not checked
unfix anneal
undump anneal

# RETURN TO LESS FREQUENT NEIGHBOR BUILDS
neigh_modify every 1 delay 10 check yes one 10000 # More relaxed rebuild criteria can be used

#===========================================================
# RUN EQUILIBRIUM SIM
#===========================================================

# UPDATE RUN PARAMETERS AND CREATE FIX
fix equil all nvt temp ${FINAL_TEMP} ${FINAL_TEMP} 100.0 # NVT, nose-hoover 100 fs T relaxation
fix equil all nvt temp 298.0 ${FINAL_TEMP} 100.0 
fix equil all nvt temp 298.0 298.0 100.0 

# CREATE COORDINATE DUMPS FOR EQUILIBRIUM
dump equil all custom ${coords_freq} equil.lammpstrj id type x y z mol
dump equil all custom 1000 equil.lammpstrj id type x y z mol
dump_modify equil sort id format float %20.10g

# RUN EQUIL
run		${nSteps_equil}
run		100000
PPPM initialization ...
WARNING: Using 12-bit tables for long-range coulomb (../kspace.cpp:321)
  G vector (1/distance) = 0.184168
  grid = 8 8 8
  stencil order = 5
  estimated absolute RMS force accuracy = 0.00816917
  estimated relative force accuracy = 2.46012e-05
  using double precision FFTs
  3d grid and FFT values/proc = 343 8
Per MPI rank memory allocation (min/avg/max) = 11.14 | 11.16 | 11.17 Mbytes
Step Temp Volume Density TotEng PotEng E_bond E_angle E_dihed E_coul E_long E_vdwl Enthalpy Press 
  120000       297.8049897750     12525.0000000000         0.7094300506       951.0279245054        62.4401179376       244.1854420969       327.5262438616         8.0269937644         0.0000000000         0.0000000000      -517.2985617853      1279.8199969811      1799.9801416541 
  121000       296.9206414289     12525.0000000000         0.7094300506       941.5654357247        55.6163396689       255.6815901658       316.2157299031        13.0995333618         0.0000000000         0.0000000000      -529.3805137618      1679.8409425957      4041.7070929712 
  122000       287.6503983592     12525.0000000000         0.7094300506       887.4807447408        29.1921152270       247.8475211705       297.8327986700         1.5289210652         0.0000000000         0.0000000000      -518.0171256788      1111.8354263815      1228.2351231887 
  123000       292.8896951168     12525.0000000000         0.7094300506       960.4047278974        86.4831326051       277.6869653950       314.3527259111        20.0721830254         0.0000000000         0.0000000000      -525.6287417265      1106.7117218381       800.9611718905 
  124000       306.5791867561     12525.0000000000         0.7094300506       982.0502027168        67.2820273924       250.0118248363       319.7524392404        13.0944769382         0.0000000000         0.0000000000      -515.5767136225      1243.4121443425      1430.8322617641 
  125000       298.7886722961     12525.0000000000         0.7094300506       950.7256560808        59.2027465972       261.3155936584       313.5078564442        10.9022937212         0.0000000000         0.0000000000      -526.5229972266      1334.6691455819      2101.9079061605 
  126000       292.5181463537     12525.0000000000         0.7094300506       906.0018138162        33.1888423272       247.1773952715       298.1571702004         9.2694027078         0.0000000000         0.0000000000      -521.4151258525      1237.6829571895      1815.7964300599 
  127000       300.8365449206     12525.0000000000         0.7094300506       952.9023563357        55.2690232325       266.7439962120       305.2414980336        10.8231058108         0.0000000000         0.0000000000      -527.5395768240      1129.2505143453       965.4222501308 
  128000       313.6362869134     12525.0000000000         0.7094300506       995.2854654005        59.4603791281       270.4307803739       298.5228062185        11.8864854712         0.0000000000         0.0000000000      -521.3796929354      1005.6822902385        56.9176686768 
  129000       310.5993980995     12525.0000000000         0.7094300506       972.4525803228        45.6889351364       276.1687245033       295.7618298218         6.7861450387         0.0000000000         0.0000000000      -533.0277642274       879.6962764320      -507.7966258723 
  130000       306.8510262998     12525.0000000000         0.7094300506       983.5230407484        67.9437530782       270.2494927593       310.7752569561        13.9581128864         0.0000000000         0.0000000000      -527.0391095237      1196.4157751062      1165.4864159629 
  131000       312.1671812920     12525.0000000000         0.7094300506      1025.5342082860        94.0926259392       277.0615883935       315.8220037037         7.3717261448         0.0000000000         0.0000000000      -506.1626923027      2043.0102189123      5570.1969939458 
  132000       299.2776883527     12525.0000000000         0.7094300506       947.8331346824        54.8511035588       265.2713536578       303.2756142982         7.3515985023         0.0000000000         0.0000000000      -521.0474628994       959.7666788474        65.3304757464 
  133000       299.8048115460     12525.0000000000         0.7094300506       970.3148492683        75.7599927782       275.0574160745       318.7640336804        15.2039520616         0.0000000000         0.0000000000      -533.2654090383      1339.6023273285      2021.6732175598 
  134000       289.3427957473     12525.0000000000         0.7094300506       918.7177139293        55.3793245571       266.3026803739       307.5301422686        10.2200558917         0.0000000000         0.0000000000      -528.6735539771      1257.6798812817      1855.6565716817 
  135000       294.7978226582     12525.0000000000         0.7094300506       955.3801252063        75.7650763961       257.7245920631       319.5460264681        13.6698791314         0.0000000000         0.0000000000      -515.1754212666      1220.2090864170      1449.8125442165 
  136000       308.0461663967     12525.0000000000         0.7094300506       981.4415472734        62.2962115055       257.7792404459       307.0676823512        14.8789198979         0.0000000000         0.0000000000      -517.4296311895      1438.2696160822      2500.9162958663 
  137000       290.8059074574     12525.0000000000         0.7094300506       909.9872972477        42.2832885277       251.2920905126       302.5446064402         9.4145428776         0.0000000000         0.0000000000      -520.9679513028      1080.8467772015       935.3743495535 
  138000       288.8923606005     12525.0000000000         0.7094300506       937.0138516945        75.0194665965       275.7290525212       314.5712765610        11.7491429859         0.0000000000         0.0000000000      -527.0300054715      1395.4289301842      2509.6044186940 
  139000       282.2164158678     12525.0000000000         0.7094300506       912.3397161127        70.2649538903       263.0861778109       325.2359804192         8.4468563795         0.0000000000         0.0000000000      -526.5040607193      1075.5496332086       893.4966329378 
  140000       285.3277589805     12525.0000000000         0.7094300506       924.5054105577        73.1470511932       258.1079236618       327.2205633792        11.6688068419         0.0000000000         0.0000000000      -523.8502426896      1033.3141834911       595.6762553407 
  141000       308.5339215645     12525.0000000000         0.7094300506       972.6816120872        52.0809169075       250.1788684824       318.9784052479        14.8773870900         0.0000000000         0.0000000000      -531.9537439128      1317.7321149825      1888.9873116556 
  142000       301.3254319372     12525.0000000000         0.7094300506       956.0067445757        56.9146748607       246.2596903987       324.1190060585        16.5287620003         0.0000000000         0.0000000000      -529.9927835967       811.3158668773      -792.1137044901 
  143000       299.3350654355     12525.0000000000         0.7094300506       932.0234553943        38.8702230555       251.1147449120       306.6715030737         7.5524754726         0.0000000000         0.0000000000      -526.4685004028       930.4127272956        -8.8179698781 
  144000       299.9867788766     12525.0000000000         0.7094300506       953.7636545804        58.6658456324       271.8799706425       302.6281587699        13.9726585464         0.0000000000         0.0000000000      -529.8149423263      1164.6677278438      1154.5994427719 
  145000       302.6164681878     12525.0000000000         0.7094300506       937.0533779446        34.1091260652       252.3503269642       312.8519373722         5.8120813698         0.0000000000         0.0000000000      -536.9052196410      1602.7549003096      3644.3990620083 
  146000       309.8326808079     12525.0000000000         0.7094300506      1015.6901733703        91.2142522311       263.3442827842       332.9795945400        16.6623263526         0.0000000000         0.0000000000      -521.7719514457      1732.3701674410      3923.4819365778 
  147000       302.1431470207     12525.0000000000         0.7094300506       958.9822634778        57.4503029708       245.6572096045       329.4931325134         3.9728856643         0.0000000000         0.0000000000      -521.6729248113      1162.2650224320      1112.8763735183 
  148000       286.6666335194     12525.0000000000         0.7094300506       918.0439247075        62.6906437310       248.9473295191       329.3342821076        11.0786151554         0.0000000000         0.0000000000      -526.6695830511      1212.1277931041      1609.9692401616 
  149000       297.8698235847     12525.0000000000         0.7094300506       960.9942914938        72.2130343971       267.9144747455       323.1525954511         8.5342201106         0.0000000000         0.0000000000      -527.3882559102      1498.3763979042      2941.9113202333 
  150000       296.2120285570     12525.0000000000         0.7094300506       944.9256836701        61.0909402248       254.6986346135       328.2405962457        11.9621024004         0.0000000000         0.0000000000      -533.8103930348       785.4845236469      -872.8644813218 
  151000       303.9919735280     12525.0000000000         0.7094300506       965.2731791901        58.2247070487       263.6269136936       318.4813807377        12.1294250308         0.0000000000         0.0000000000      -536.0130124134       998.7129144307       183.0666382011 
  152000       305.4190650442     12525.0000000000         0.7094300506      1002.3820113482        91.0753965842       262.1958060966       335.2345555857        15.2069613835         0.0000000000         0.0000000000      -521.5619264816      1495.9688859567      2702.1532660049 
  153000       298.4540694831     12525.0000000000         0.7094300506       944.6337980969        54.1092734286       251.9205749923       303.5880444058        15.9603187889         0.0000000000         0.0000000000      -517.3596647585      1836.6672896919      4883.4588938588 
  154000       297.6588549809     12525.0000000000         0.7094300506       976.2578526884        88.1060817834       278.8177189181       326.0099963411        10.4844438789         0.0000000000         0.0000000000      -527.2060773547      1310.1714747886      1828.0181887680 
  155000       299.3687404864     12525.0000000000         0.7094300506       939.4997304099        46.2460187620       251.0666319064       319.6259006861        19.1789560125         0.0000000000         0.0000000000      -543.6254698430      1067.9377975455       703.1373005307 
  156000       296.4367648911     12525.0000000000         0.7094300506       960.1850967704        75.6797871055       265.3950750881       339.3388823830        13.0762667214         0.0000000000         0.0000000000      -542.1304370870       893.4232109353      -365.4895564168 
  157000       304.9606979007     12525.0000000000         0.7094300506      1015.1298008874       105.1908578167       264.4270465957       344.8084031449        15.6338763183         0.0000000000         0.0000000000      -519.6784682423      1464.1614821239      2458.2347838066 
  158000       296.6477112947     12525.0000000000         0.7094300506       969.9759173503        84.8411877344       270.9106316601       331.4986360169        16.0929305245         0.0000000000         0.0000000000      -533.6610104671      1889.6410253098      5034.7288449965 
  159000       294.9324916722     12525.0000000000         0.7094300506       948.3272902748        68.3104172916       261.9299973774       330.0914474712         9.8980240707         0.0000000000         0.0000000000      -533.6090516277      1500.7750931666      3024.3888394827 
  160000       288.9634505906     12525.0000000000         0.7094300506       950.7843313438        88.5778285829       307.0736221226       296.7126218067        11.6302111823         0.0000000000         0.0000000000      -526.8386265287      1242.6756747904      1597.9662093695 
  161000       290.1969657049     12525.0000000000         0.7094300506       956.2696710750        90.3826171904       260.8105799776       332.2917136806        19.8085463230         0.0000000000         0.0000000000      -522.5282227908       999.7092624107       237.8110919075 
  162000       312.4312588699     12525.0000000000         0.7094300506       994.7484598444        62.5189252346       272.2966816307       305.0886287543        20.2193400269         0.0000000000         0.0000000000      -535.0857251773      1431.5595072878      2391.3326289570 
  163000       309.9253279164     12525.0000000000         0.7094300506       986.1773091824        61.4249484475       271.8368827370       293.2668790265        14.2700249245         0.0000000000         0.0000000000      -517.9488382405      1070.3228603063       460.6568518856 
  164000       292.6805199882     12525.0000000000         0.7094300506       921.4249628743        48.1275024189       228.4473277264       320.0665015159        17.5506279492         0.0000000000         0.0000000000      -517.9369547726      1292.6658286163      2032.3670856012 
  165000       297.5194181038     12525.0000000000         0.7094300506       936.6663385220        48.9306180966       246.2700044662       318.1643130938         3.4971023285         0.0000000000         0.0000000000      -519.0008017919      1709.3305109358      4229.9686730301 
  166000       312.7964801416     12525.0000000000         0.7094300506      1049.1026517165       115.7833732141       278.0776609275       337.1024928745         8.5358944544         0.0000000000         0.0000000000      -507.9326750423      1211.8481131190       890.9539590271 
  167000       296.0831778683     12525.0000000000         0.7094300506       948.3965566514        64.9462767135       274.4143855163       307.8754484659        13.7238675645         0.0000000000         0.0000000000      -531.0674248331      1489.0422739693      2959.7780369684 
  168000       278.4452094746     12525.0000000000         0.7094300506       863.7810205146        32.9587494597       253.7113761454       298.1624858034        10.4237920405         0.0000000000         0.0000000000      -529.3389045296      1049.7678963923      1018.1896438912 
  169000       300.1574154673     12525.0000000000         0.7094300506      1000.6313729504       105.0244201028       266.4327518378       342.1508050508        17.7510194682         0.0000000000         0.0000000000      -521.3101562541      1502.7717588071      2748.9796699144 
  170000       298.9231512528     12525.0000000000         0.7094300506       941.0128339743        49.0886674089       251.1674409812       319.6125281579        14.1897814036         0.0000000000         0.0000000000      -535.8810831338      1167.8122265773      1241.6187523951 
  171000       313.3876976339     12525.0000000000         0.7094300506       996.8479800084        61.7646321562       257.7031163740       314.6164182659        10.9032801136         0.0000000000         0.0000000000      -521.4581825972      1330.6652626233      1827.4907759285 
  172000       296.6081376421     12525.0000000000         0.7094300506       980.7639504618        95.7473003488       275.9810675190       318.4752848798        15.5873305775         0.0000000000         0.0000000000      -514.2963826275      1718.0327347316      4036.1957657771 
  173000       290.8873729472     12525.0000000000         0.7094300506       940.5286417250        72.5815570210       251.0507251967       337.8835461215        14.0877978947         0.0000000000         0.0000000000      -530.4405121918      1358.8682871248      2290.2104923534 
  174000       300.6869729184     12525.0000000000         0.7094300506       972.7161290484        75.5290875183       259.8453082278       338.5840834283        11.8585716765         0.0000000000         0.0000000000      -534.7588758142      1185.3603620277      1164.1259891642 
  175000       293.4151173594     12525.0000000000         0.7094300506       911.6674335837        36.1780882063       256.6880526832       307.8277401295         2.4478947857         0.0000000000         0.0000000000      -530.7855993921      1214.8876892344      1659.9866128433 
  176000       306.3624694835     12525.0000000000         0.7094300506       976.7625463945        62.6410100871       267.5488956112       306.9248408858         8.9359896646         0.0000000000         0.0000000000      -520.7687160745      1463.8023120085      2666.3109596908 
  177000       303.2182852406     12525.0000000000         0.7094300506       993.2408946852        88.5009465842       251.7312193468       346.8792565762        16.0708212223         0.0000000000         0.0000000000      -526.1803505611      1308.7185932894      1727.0902803302 
  178000       295.7082958312     12525.0000000000         0.7094300506       935.8198951501        53.4881848081       241.3382360368       338.8270980721        15.4044822386         0.0000000000         0.0000000000      -542.0816315394      1321.6619259886      2112.3015165652 
  179000       292.9962956695     12525.0000000000         0.7094300506       921.9054292860        47.6657602387       261.9326968147       314.4124474324        14.5026244392         0.0000000000         0.0000000000      -543.1820084476      1240.4194994192      1743.7129695991 
  180000       302.2015806894     12525.0000000000         0.7094300506       976.1559497842        74.4496354306       265.0378557992       316.1723583817        12.8375760566         0.0000000000         0.0000000000      -519.5981548069       880.0921647126      -525.9035114776 
  181000       306.4583299903     12525.0000000000         0.7094300506       963.2593649421        48.8518009307       242.1875422661       320.8131483456        14.1948294377         0.0000000000         0.0000000000      -528.3437191187       737.6518965757     -1235.0935343745 
  182000       303.3658419263     12525.0000000000         0.7094300506       981.0972161271        75.9169897361       275.3469454436       314.0832962408        11.6230998589         0.0000000000         0.0000000000      -525.1363518071      1696.3474107246      3915.6544648296 
  183000       286.2473925949     12525.0000000000         0.7094300506       951.0063151763        96.9039614385       266.4209999621       339.2737706550        14.6592922936         0.0000000000         0.0000000000      -523.4501014724      1148.5735739578      1081.5867297842 
  184000       294.3497284092     12525.0000000000         0.7094300506       962.8032518278        84.5252225421       265.9296855009       322.0917818566        16.0224461837         0.0000000000         0.0000000000      -519.5186909992      1194.3496065204      1267.6061110022 
  185000       293.7093795409     12525.0000000000         0.7094300506       929.7035364117        53.3361742267       248.1981870568       329.0026364835        10.9389675661         0.0000000000         0.0000000000      -534.8036168797      1084.9722600884       850.0223777713 
  186000       283.4487645223     12525.0000000000         0.7094300506       939.7390413773        93.9872085030       262.3204325167       336.1423405677        15.1923980861         0.0000000000         0.0000000000      -519.6679626674       880.8964703518      -322.1350762271 
  187000       304.1392185255     12525.0000000000         0.7094300506       993.7996452627        86.3118248434       272.8343025288       323.2207688998        16.7185864623         0.0000000000         0.0000000000      -526.4618330475      1375.7206087114      2090.8355384395 
  188000       312.3416863224     12525.0000000000         0.7094300506      1006.6990195102        74.7367506488       262.2256204481       321.2137643974        14.1255759788         0.0000000000         0.0000000000      -522.8282101755       884.4434517557      -669.2910583514 
  189000       304.1719604067     12525.0000000000         0.7094300506       984.3007728070        76.7152574621       280.7691902469       316.4382655320        11.0246280445         0.0000000000         0.0000000000      -531.5168263614      1694.4912687091      3887.9550221213 
  190000       315.4640142003     12525.0000000000         0.7094300506      1010.7537223730        69.4750801274       274.5686324887       323.5434932138         8.9819684197         0.0000000000         0.0000000000      -537.6190139947      1011.0436524808         1.5872293774 
  191000       300.3048666282     12525.0000000000         0.7094300506       946.9350038995        50.8880876259       250.4774857001       328.3884176458         7.0426069426         0.0000000000         0.0000000000      -535.0204226626      1339.9970443261      2151.8276334305 
  192000       291.0863225752     12525.0000000000         0.7094300506       942.5081539079        73.9674451226       267.8414994706       320.3224066854        17.8094749330         0.0000000000         0.0000000000      -532.0059359664      1465.3828289736      2862.4900369578 
  193000       286.9036242108     12525.0000000000         0.7094300506       923.8877444144        67.8273327791       254.6978051609       325.2311317442         7.6530935912         0.0000000000         0.0000000000      -519.7546977173       619.5868106214     -1665.9028114336 
  194000       286.1128374345     12525.0000000000         0.7094300506       923.7693349314        70.0684656515       255.2400912300       340.5555554160        11.6318513433         0.0000000000         0.0000000000      -537.3590323378      1161.3308083271      1300.5360236173 
  195000       295.8264514244     12525.0000000000         0.7094300506       991.3444430806       108.6601811593       275.2624856154       352.2215462341        13.2480839223         0.0000000000         0.0000000000      -532.0719346124      1246.4251007002      1396.4452207690 
  196000       291.7374475966     12525.0000000000         0.7094300506       940.6032993422        70.1197696691       254.7846967580       323.7920094080         8.4466018503         0.0000000000         0.0000000000      -516.9035383471      1035.9975275515       522.2380062640 
  197000       294.9621347306     12525.0000000000         0.7094300506       974.6248544165        94.5195327465       286.0808838398       316.2031694243        14.7629571702         0.0000000000         0.0000000000      -522.5274776878      1074.3919801733       546.1775395013 
  198000       311.0028726596     12525.0000000000         0.7094300506       970.7277628735        42.7602339824       268.0950857867       300.3478127878        11.3680534046         0.0000000000         0.0000000000      -537.0507179967      1309.4964126844      1854.5971552274 
  199000       305.5225563563     12525.0000000000         0.7094300506       967.7002843707        56.0848731758       265.7374757399       317.9980382911         7.2856388156         0.0000000000         0.0000000000      -534.9362796708      1470.0894345654      2750.3415362911 
  200000       306.3439764569     12525.0000000000         0.7094300506      1006.8812087837        92.8148518002       278.8380707427       324.8739486538        17.0041707133         0.0000000000         0.0000000000      -527.9013383096      1176.3043810167       927.5112482463 
  201000       294.1919426779     12525.0000000000         0.7094300506       947.4570381376        69.6498084748       270.9283991403       293.0081900407        18.6138010634         0.0000000000         0.0000000000      -512.9005817696      1334.2222094548      2117.3552714111 
  202000       292.0333594031     12525.0000000000         0.7094300506       959.0782025920        87.7117339753       261.5236266976       330.7973816309        15.9325804478         0.0000000000         0.0000000000      -520.5418548010      1536.6337480984      3161.8417828209 
  203000       308.8511952915     12525.0000000000         0.7094300506      1007.4599915322        85.9126179058       280.4571670931       314.9918609314        20.9365565060         0.0000000000         0.0000000000      -530.4729666246      1557.1681678809      3009.3906878059 
  204000       295.3520487301     12525.0000000000         0.7094300506       951.1874790589        69.9187355609       277.6648800632       314.0064309219        10.9087302874         0.0000000000         0.0000000000      -532.6613057116      1073.4505552117       669.3321632591 
  205000       294.2401334096     12525.0000000000         0.7094300506       923.7259600123        45.7749392848       248.8056720749       315.2163885702         8.9194837972         0.0000000000         0.0000000000      -527.1666051574      1586.7866759525      3629.9419034563 
  206000       301.0642758050     12525.0000000000         0.7094300506       974.7835534201        76.4707189855       265.0843243688       333.5196514908         8.3223104698         0.0000000000         0.0000000000      -530.4555673439      1922.7369523750      5189.5937772615 
  207000       294.4040666648     12525.0000000000         0.7094300506       943.9733251524        65.5331618763       264.8175149727       313.7645733925         4.5565436664         0.0000000000         0.0000000000      -517.6054701553      1718.4927676190      4240.1253937421 
  208000       300.0435998674     12525.0000000000         0.7094300506       966.3813138769        71.1139629762       270.7821070043       302.3784455867        11.6501581527         0.0000000000         0.0000000000      -513.6967477675      1447.3708443238      2633.1888011451 
  209000       289.6947938042     12525.0000000000         0.7094300506       937.4624929659        73.0738150087       262.8082307756       317.1816417424        17.1386264381         0.0000000000         0.0000000000      -524.0546839473      1144.7349746647      1134.7182070421 
  210000       303.5554870749     12525.0000000000         0.7094300506       960.9495071160        55.2034192639       258.6452948356       318.3256818950         8.2609970115         0.0000000000         0.0000000000      -530.0285544783       973.4160731917        68.2485170697 
  211000       284.8687331184     12525.0000000000         0.7094300506       918.0025799613        68.0138577687       262.0250461959       320.1471604870        12.5901758829         0.0000000000         0.0000000000      -526.7485247971       922.3384615600        23.7368885307 
  212000       295.8961459765     12525.0000000000         0.7094300506       942.5609872082        59.6687713195       257.4219382931       323.7081672716        15.1912505778         0.0000000000         0.0000000000      -536.6525848231      1067.4549148676       683.7348233716 
  213000       308.2196223708     12525.0000000000         0.7094300506       944.0488346654        24.3859425475       242.1058127682       291.9574849923        13.2585884644         0.0000000000         0.0000000000      -522.9359436775      1519.9296247026      3152.6732935565 
  214000       298.1181531195     12525.0000000000         0.7094300506       920.6427781029        31.1205576101       247.0513639903       299.5470071177        10.1328856839         0.0000000000         0.0000000000      -525.6106991819      1407.7082143904      2666.4514944123 
  215000       296.0557352035     12525.0000000000         0.7094300506       930.7592792421        47.3908824764       266.0273378517       289.8311969513        14.4361735282         0.0000000000         0.0000000000      -522.9038258548      1140.6401943633      1148.9981388115 
  216000       299.2082150333     12525.0000000000         0.7094300506       929.6192230267        36.8444857584       260.1135955034       290.3375999345         8.7169857644         0.0000000000         0.0000000000      -522.3236954439      1198.9387124943      1474.3960496132 
  217000       303.9043859424     12525.0000000000         0.7094300506       986.9171277735        80.1299986693       263.8914034616       321.7283139866        20.8775888626         0.0000000000         0.0000000000      -526.3673076415      1299.2285104234      1709.7562071669 
  218000       308.9344663789     12525.0000000000         0.7094300506      1044.2585951031       122.4627579674       293.4934240032       327.4952686515        17.9966248135         0.0000000000         0.0000000000      -516.5225595009      1394.4672725804      1917.2258629833 
  219000       292.5774856808     12525.0000000000         0.7094300506       922.2496900176        49.2596623870       257.1983460687       306.9664615418        17.1954738037         0.0000000000         0.0000000000      -532.1006190272       994.6405339256       396.3054233360 
  220000       287.9775730207     12525.0000000000         0.7094300506       920.4741305102        61.2092802316       258.6787717764       310.6069036488        14.7340755629         0.0000000000         0.0000000000      -522.8104707566      1108.0018647947      1026.6251104533 
Loop time of 44.3886 on 64 procs for 100000 steps with 1002 atoms

Performance: 194.644 ns/day, 0.123 hours/ns, 2252.829 timesteps/s
99.1% CPU use with 64 MPI tasks x no OpenMP threads

MPI task timing breakdown:
Section |  min time  |  avg time  |  max time  |%varavg| %total
---------------------------------------------------------------
Pair    | 9.7313     | 15.829     | 22.517     |  95.3 | 35.66
Bond    | 0.44327    | 0.47486    | 0.50617    |   2.1 |  1.07
Kspace  | 0.0043855  | 0.005226   | 0.0070002  |   0.7 |  0.01
Neigh   | 1.5179     | 1.6312     | 1.6655     |   2.5 |  3.67
Comm    | 18.187     | 24.924     | 31.055     |  76.3 | 56.15
Output  | 0.047094   | 0.047143   | 0.047719   |   0.0 |  0.11
Modify  | 0.72845    | 0.80139    | 0.87116    |   3.6 |  1.81
Other   |            | 0.6761     |            |       |  1.52

Nlocal:    15.6562 ave 22 max 7 min
Histogram: 1 1 3 5 15 8 14 2 8 7
Nghost:    4340.28 ave 4411 max 4287 min
Histogram: 5 6 11 13 6 5 7 5 4 2
Neighs:    10742.7 ave 18383 max 4850 min
Histogram: 5 5 11 9 8 10 7 3 5 1

Total # of neighbors = 687533
Ave neighs/atom = 686.161
Ave special neighs/atom = 5
Neighbor list builds = 4144
Dangerous builds = 0
unfix equil
undump equil

# WRITE RESTART FILES, CLEANUP, AND EXIT
write_restart   md-3.end.restart
PPPM initialization ...
WARNING: Using 12-bit tables for long-range coulomb (../kspace.cpp:321)
  G vector (1/distance) = 0.184168
  grid = 8 8 8
  stencil order = 5
  estimated absolute RMS force accuracy = 0.00816917
  estimated relative force accuracy = 2.46012e-05
  using double precision FFTs
  3d grid and FFT values/proc = 343 8
write_data      md-3.end.data pair ii
PPPM initialization ...
WARNING: Using 12-bit tables for long-range coulomb (../kspace.cpp:321)
  G vector (1/distance) = 0.184168
  grid = 8 8 8
  stencil order = 5
  estimated absolute RMS force accuracy = 0.00816917
  estimated relative force accuracy = 2.46012e-05
  using double precision FFTs
  3d grid and FFT values/proc = 343 8
unfix		averages
Total wall time: 0:02:51
