
#===========================================================
# GENERAL PROCEDURES
#===========================================================
units		real	# g/mol, angstroms, fs, kcal/mol, K, atm, charge*angstrom
dimension	3	# 3 dimensional simulation
newton		on	# use Newton's 3rd law
boundary	p p p	# periodic boundary conditions
atom_style	full    # molecular + charge

#===========================================================
# FORCE FIELD DEFINITION
#===========================================================
special_bonds  lj   0.0 0.0 0.0  coul 0.0 0.0 0.0     # NO     1-4 LJ/COUL interactions
pair_style     hybrid lj/cut/coul/long 14.0 14.0 # outer_LJ outer_Coul (cutoff values, see LAMMPS Doc)
kspace_style   pppm 0.0001          # long-range electrostatics sum method
bond_style     harmonic             # parameters needed: k_bond, r0
angle_style    harmonic             # parameters needed: k_theta, theta0
dihedral_style hybrid opls            # parameters needed: V1, V2, V3, V4
pair_modify    shift yes mix arithmetic       # using Lorenz-Berthelot mixing rules

#===========================================================
# SETUP SIMULATIONS
#===========================================================

# READ IN COEFFICIENTS/COORDINATES/TOPOLOGY
read_data ${data_name}
read_data md-4.data
  orthogonal box = (-11.6117 -11.6117 -11.6117) to (11.6117 11.6117 11.6117)
  4 by 4 by 4 MPI processor grid
  reading atoms ...
  1002 atoms
  reading velocities ...
  1002 velocities
  scanning bonds ...
  1 = max bonds/atom
  scanning angles ...
  6 = max angles/atom
  scanning dihedrals ...
  3 = max dihedrals/atom
  reading bonds ...
  835 bonds
  reading angles ...
  1169 angles
  reading dihedrals ...
  501 dihedrals
  4 = max # of 1-2 neighbors
  3 = max # of 1-3 neighbors
  4 = max # of 1-4 neighbors
  5 = max # of special neighbors
include ${settings_name}
include md-4.in.settings
     # Non-bonded interactions (pair-wise)
     pair_coeff           1          1          lj/cut/coul/long     0.019227             2.419245
     pair_coeff           1          2          lj/cut/coul/long     0.004385             2.416486
     pair_coeff           1          3          lj/cut/coul/long     0.042208             3.024313
     pair_coeff           1          4          lj/cut/coul/long     0.053330             2.736156
     pair_coeff           2          2          lj/cut/coul/long     0.001000             2.413711
     pair_coeff           2          3          lj/cut/coul/long     0.009577             3.023411
     pair_coeff           2          4          lj/cut/coul/long     0.012119             2.734668
     pair_coeff           3          3          lj/cut/coul/long     0.203472             3.316154
     pair_coeff           3          4          lj/cut/coul/long     0.190481             3.153949
     pair_coeff           4          4          lj/cut/coul/long     0.203388             2.934631

     # Stretching interactions
     bond_coeff           1           366.904251           1.096103
     bond_coeff           2           612.219900           0.957501
     bond_coeff           3           368.709924           1.411527

     # Bending interactions
     angle_coeff          1           40.926667            108.205025
     angle_coeff          2           61.328715            112.232133
     angle_coeff          3           49.873049            108.741688

     # Dihedral interactions
     dihedral_coeff       1          opls                  0.105414            -0.205941             0.372587            -0.070860

# SET RUN PARAMETERS
timestep	1.0		# fs
run_style	verlet 		# Velocity-Verlet integrator
neigh_modify every 1 delay 0 check no one 10000 # More relaxed rebuild criteria can be used

#===========================================================
# RUN CONSTRAINED RELAXATION
#===========================================================

# SET OUTPUTS
thermo_style    custom step temp vol density etotal pe ebond eangle edihed ecoul elong evdwl enthalpy press
thermo_modify   format float %20.10f
thermo ${thermo_freq}
thermo 1000

# DECLARE RELEVANT OUTPUT VARIABLES
variable        my_step equal   step
variable        my_temp equal   temp
variable        my_rho  equal   density
variable        my_pe   equal   pe
variable        my_ebon equal   ebond
variable        my_eang equal   eangle
variable        my_edih equal   edihed
variable        my_evdw equal   evdwl
variable        my_eel  equal   (ecoul+elong)
variable        my_ent  equal   enthalpy
variable        my_P    equal   press
variable        my_vol  equal   vol

fix  averages all ave/time ${dump4avg} $(v_avg_freq/v_dump4avg) ${avg_freq} v_my_temp v_my_rho v_my_vol v_my_pe v_my_edih v_my_evdw v_my_eel v_my_ent v_my_P file thermo.avg
fix  averages all ave/time 100 $(v_avg_freq/v_dump4avg) ${avg_freq} v_my_temp v_my_rho v_my_vol v_my_pe v_my_edih v_my_evdw v_my_eel v_my_ent v_my_P file thermo.avg
fix  averages all ave/time 100 10 ${avg_freq} v_my_temp v_my_rho v_my_vol v_my_pe v_my_edih v_my_evdw v_my_eel v_my_ent v_my_P file thermo.avg
fix  averages all ave/time 100 10 1000 v_my_temp v_my_rho v_my_vol v_my_pe v_my_edih v_my_evdw v_my_eel v_my_ent v_my_P file thermo.avg

# INITIALIZE VELOCITIES AND CREATE THE CONSTRAINED RELAXATION FIX
velocity        all create ${ANNEAL_TEMP} ${vseed} mom yes rot yes     # DRAW VELOCITIES
velocity        all create 100.0 ${vseed} mom yes rot yes     
velocity        all create 100.0 21221 mom yes rot yes     

fix relax all nve/limit 0.01
run             10000
PPPM initialization ...
WARNING: Using 12-bit tables for long-range coulomb (../kspace.cpp:321)
  G vector (1/distance) = 0.184168
  grid = 8 8 8
  stencil order = 5
  estimated absolute RMS force accuracy = 0.00816917
  estimated relative force accuracy = 2.46012e-05
  using double precision FFTs
  3d grid and FFT values/proc = 343 8
Neighbor list info ...
  update every 1 steps, delay 0 steps, check no
  max neighbors/atom: 10000, page size: 100000
  master list distance cutoff = 16
  ghost atom cutoff = 16
  binsize = 8, bins = 3 3 3
  1 neighbor lists, perpetual/occasional/extra = 1 0 0
  (1) pair lj/cut/coul/long, perpetual
      attributes: half, newton on
      pair build: half/bin/newton
      stencil: half/bin/3d/newton
      bin: standard
Per MPI rank memory allocation (min/avg/max) = 8.547 | 8.682 | 9.151 Mbytes
Step Temp Volume Density TotEng PotEng E_bond E_angle E_dihed E_coul E_long E_vdwl Enthalpy Press 
       0       100.0000000000     12525.0000000000         0.7094300506       311.3685951579        12.9895091529       258.6787717764       310.6069036488        14.7340755629      3012.4025923909     -3055.3651074014      -528.0677268247      -285.7553813128     -3268.9696307460 
    1000        32.2893443861     12525.0000000000         0.7094300506     -1143.9711748412     -1240.3158254974         4.3278037832        16.8048511630       -33.9424816641      2308.8055719480     -3065.6397471386      -470.6718235888     -1625.4938252045     -2636.1073790027 
    2000        25.2502859436     12525.0000000000         0.7094300506     -1242.3068859180     -1317.6484583301         4.3926448213        16.6033428080       -32.4447260043      2260.2428342451     -3065.7170219607      -500.7255322395     -1690.6574068508     -2454.5057552724 
    3000        20.8410163544     12525.0000000000         0.7094300506     -1304.4511478248     -1366.6363819371         4.1838698829        16.0850672907       -35.2713845025      2235.1631770673     -3065.9283101755      -520.8688014999     -1662.8066813469     -1961.8260231611 
    4000        19.3814254367     12525.0000000000         0.7094300506     -1336.2854547494     -1394.1155748221         4.0755252173        16.0881980554       -35.1556391294      2212.8392625941     -3065.7729663932      -526.1899551663     -1658.7580837796     -1765.3841958869 
    5000        16.9423943925     12525.0000000000         0.7094300506     -1362.7506002771     -1413.3031618128         4.1899314216        16.3149439225       -36.9025446732      2220.0688139087     -3065.6966036915      -551.2777027010     -1664.3385100012     -1651.0502956442 
    6000        15.2751950672     12525.0000000000         0.7094300506     -1381.0179131258     -1426.5959005526         4.3251207207        17.1259975718       -37.1864093592      2223.6239991874     -3065.1229734282      -569.3616352452     -1686.5742007758     -1672.7752764426 
    7000        14.0262580708     12525.0000000000         0.7094300506     -1394.1556788042     -1436.0070994365         4.3407684482        17.0602005198       -35.4462647164      2215.6232629432     -3065.6311455720      -571.9539210592     -1687.4246521263     -1605.5080773952 
    8000        13.3877265509     12525.0000000000         0.7094300506     -1403.8230505916     -1443.7692267109         4.4123401475        16.0445453985       -36.3438570547      2219.3689077214     -3065.4199222257      -581.8312406978     -1725.5909901654     -1761.5263564386 
    9000        13.3486863581     12525.0000000000         0.7094300506     -1411.7465111449     -1451.5761994939         4.4248202126        16.8403538219       -36.6994187082      2210.5123205460     -3065.1186864806      -581.5355888856     -1705.1612072535     -1606.3058403093 
   10000        11.4614750107     12525.0000000000         0.7094300506     -1419.9710916171     -1454.1697359966         4.4082129198        16.1585970009       -36.1185872341      2207.9463005568     -3065.1135104824      -581.4507487577     -1704.3870312511     -1557.0419306538 
Loop time of 10.9914 on 64 procs for 10000 steps with 1002 atoms

Performance: 78.607 ns/day, 0.305 hours/ns, 909.805 timesteps/s
98.9% CPU use with 64 MPI tasks x no OpenMP threads

MPI task timing breakdown:
Section |  min time  |  avg time  |  max time  |%varavg| %total
---------------------------------------------------------------
Pair    | 0.23717    | 1.6079     | 3.2184     |  55.6 | 14.63
Bond    | 0.005394   | 0.044592   | 0.069184   |   7.5 |  0.41
Kspace  | 0.96759    | 2.5621     | 3.9433     |  44.1 | 23.31
Neigh   | 3.5475     | 3.7906     | 3.9907     |   6.3 | 34.49
Comm    | 2.6951     | 2.8967     | 3.1706     |   7.7 | 26.35
Output  | 0.0016072  | 0.0017944  | 0.0018046  |   0.1 |  0.02
Modify  | 0.0077884  | 0.0090847  | 0.010117   |   0.6 |  0.08
Other   |            | 0.07854    |            |       |  0.71

Nlocal:    15.6562 ave 27 max 0 min
Histogram: 6 4 2 4 6 7 6 11 13 5
Nghost:    4293.97 ave 5110 max 3556 min
Histogram: 3 6 8 8 9 8 10 5 5 2
Neighs:    10763.3 ave 24271 max 0 min
Histogram: 7 5 5 8 12 12 4 7 2 2

Total # of neighbors = 688853
Ave neighs/atom = 687.478
Ave special neighs/atom = 5
Neighbor list builds = 10000
Dangerous builds not checked
unfix relax

#===========================================================
# RUN RAMPED ANNEAL
#===========================================================

# REINITIALIZE THE VELOCITIES AND CREATE THE ANNEALING FIX
velocity        all create ${ANNEAL_TEMP} ${vseed} mom yes rot yes     # DRAW VELOCITIES
velocity        all create 100.0 ${vseed} mom yes rot yes     
velocity        all create 100.0 21221 mom yes rot yes     

fix mom all momentum 1000 linear 1 1 1 angular # Zero out system linear and angular momentum every ps
fix anneal all npt temp ${ANNEAL_TEMP} ${FINAL_TEMP} 100.0 iso ${pressure} ${pressure} 1000.0 # NPT, nose-hoover 100 fs T relaxation
fix anneal all npt temp 100.0 ${FINAL_TEMP} 100.0 iso ${pressure} ${pressure} 1000.0 
fix anneal all npt temp 100.0 298.0 100.0 iso ${pressure} ${pressure} 1000.0 
fix anneal all npt temp 100.0 298.0 100.0 iso 1.0 ${pressure} 1000.0 
fix anneal all npt temp 100.0 298.0 100.0 iso 1.0 1.0 1000.0 

# CREATE COORDINATE DUMPS FOR ANNEAL
dump anneal all custom ${coords_freq} anneal.lammpstrj id type x y z mol
dump anneal all custom 1000 anneal.lammpstrj id type x y z mol
dump_modify anneal sort id format float %20.10g

# RUN RAMPED ANNEAL
run ${nSteps_ramp}
run 50000
PPPM initialization ...
WARNING: Using 12-bit tables for long-range coulomb (../kspace.cpp:321)
  G vector (1/distance) = 0.184168
  grid = 8 8 8
  stencil order = 5
  estimated absolute RMS force accuracy = 0.00816917
  estimated relative force accuracy = 2.46012e-05
  using double precision FFTs
  3d grid and FFT values/proc = 343 8
Per MPI rank memory allocation (min/avg/max) = 9.821 | 10.37 | 10.53 Mbytes
Step Temp Volume Density TotEng PotEng E_bond E_angle E_dihed E_coul E_long E_vdwl Enthalpy Press 
   10000       100.0000000000     12525.0000000000         0.7094300506     -1155.7906499916     -1454.1697359966         4.4082129198        16.1585970009       -36.1185872341      2207.9463005568     -3065.1135104824      -581.4507487577     -1264.0862952086      -592.8671252641 
   11000        93.9170412368     10868.1739285243         0.8175808965      -888.3338234613     -1168.5626327067       102.9076229399       105.4742048686       -20.4834146067      2266.0419353681     -3065.8490888068      -556.6538924698     -1448.4240954398     -3533.6665072766 
   12000       111.8162249569      9853.6159030159         0.9017614925      -864.5994785775     -1198.2357086093        84.2059440349       105.9767592083       -17.1857512525      2300.4336012376     -3066.3482112167      -605.3180506208      -569.5458644819      2053.1913216108 
   13000       111.6384768045      9632.3175510641         0.9224790749      -884.5648978329     -1217.6707645521        77.4893043925       101.7775959520       -14.1370468925      2297.0513387704     -3064.7236409284      -615.1283158460      -756.9577339814       908.3816975051 
   14000       113.4109567592      9396.7633056057         0.9456034056      -883.9598482840     -1222.3544244916        79.0980034304       107.9649578373       -14.0119259414      2295.3068434218     -3063.9400640280      -626.7722392117      -791.6661086657       673.4697080507 
   15000       121.2173515844      9499.5767060426         0.9353691915      -840.4543000578     -1202.1415257949        91.0597093408        99.5135159326       -12.0631066898      2299.5302500991     -3064.9368381306      -615.2450563471     -1076.7558058522     -1705.6359684034 
   16000       133.1245767325      9395.8398322907         0.9456963446      -813.8492179981     -1211.0651133007        88.6125552554       112.1782693331       -11.7547486196      2304.2661715685     -3065.7426671670      -638.6246936710      -694.7581013712       869.0962440236 
   17000       135.2288735936      9404.5035759010         0.9448251374      -773.7205235650     -1177.2152006084        96.9624204031       128.0514654845        -8.9084995460      2303.2650497079     -3066.1417595666      -630.4438770914      -909.2242748487      -987.9604358795 
   18000       136.8695636755      9340.6841207800         0.9512805774      -738.0955955004     -1146.4857486142       106.5474940514       124.8430673475        -3.2795744112      2319.4504186923     -3065.4170278406      -628.6301264536      -492.7623912977      1800.9504166427 
   19000       136.1825762355      9477.7156927917         0.9375266859      -735.3635725070     -1141.7038987765       105.9764519711       129.6852288416        -2.9982668443      2318.3605665175     -3066.1431691434      -626.5847101190      -869.6221748393      -971.3205017370 
   20000       144.1662453634      9510.0440907283         0.9343396622      -690.3329639199     -1120.4948891630       101.1061104413       142.8666344724        -3.3289742612      2322.7296937449     -3065.1089311073      -618.7594224531      -634.2212132732       404.5716053480 
   21000       148.5831218926      9427.9805729313         0.9424723900      -678.6701408778     -1122.0111019385       112.4467926446       142.8106702439        -4.8778079020      2305.1937090133     -3065.1524124855      -612.4320534528      -769.8281163881      -662.9795052075 
   22000       150.7878877299      9275.6611333423         0.9579491161      -663.3523038463     -1113.2718250611       115.7950094171       143.6838005711        -0.6335143053      2318.2581706617     -3065.5273165232      -624.8479748825      -551.6664625261       825.6145850066 
   23000       152.7820133229      9489.4406975605         0.9363682926      -631.8220551770     -1087.6916301098       116.7912134028       153.2681168623         1.4774926991      2332.7109618469     -3065.2040044947      -626.7354104262      -582.0917025054       359.3395615993 
   24000       152.7504175874      9435.7794466117         0.9416934164      -632.5146267654     -1088.2899266316       119.8543158913       153.0111046931        -3.8987473130      2332.6428158408     -3065.9988844020      -623.9005313418      -617.4751393608       109.2897327221 
   25000       166.6108631509      9553.0581656127         0.9301326580      -584.3686835344     -1081.5006541892       128.0988554733       151.7556950082        -7.2201105050      2320.4669833423     -3065.3276652212      -609.2744122868      -433.0790976353      1085.9022243213 
   26000       164.9618526760      9423.9078922341         0.9428796933      -537.8369467152     -1030.0486149866       131.5060391885       184.7295448066        -0.4749894604      2320.1180791417     -3064.5522016141      -601.3750870489      -564.4412348428      -193.5729731204 
   27000       166.8669127197      9499.7819996216         0.9353489779      -560.2332097213     -1058.1291787391       124.4926160647       168.3759208641        -0.4402966102      2328.1288218938     -3066.1324893465      -612.5537516049      -667.4744719637      -774.0560125330 
   28000       173.9071935753      9525.5704412701         0.9328167209      -520.9049903029     -1039.8076849897       135.6755723846       179.2803019973        -3.1842859500      2334.7828029376     -3065.8487291642      -620.5133471950      -780.0649331630     -1865.5246552396 
   29000       176.1226726225      9419.9433642308         0.9432765188      -491.0033888916     -1016.5166097101       132.4557191238       186.2089089608        -4.0879061212      2362.2388243929     -3063.8266185745      -629.5055374920      -346.1528907623      1054.3767286756 
   30000       175.9757962636      9861.1430769591         0.9010731630      -459.6451839435      -984.7201564249       149.0748503929       181.2116192149        -7.7434744302      2356.0614852652     -3065.5511339219      -597.7735029458      -587.4399598427      -888.6074525339 
   31000       190.6299158998      9793.8585904275         0.9072635981      -405.4388929708      -974.2386936847       151.4243274526       180.5464571660        -3.4177853521      2353.1286675698     -3064.4596431611      -591.4607173600      -418.1118261889       -88.7252900524 
   32000       191.4809641615      9797.1673792543         0.9069571887      -382.6574631368      -953.9966138753       153.2577398974       192.7467988781        -1.7301983274      2359.6724118268     -3065.3073085549      -592.6360575953      -568.3138111645     -1299.3716475547 
   33000       195.4876207541      9807.7278280090         0.9059806246      -354.1334725757      -937.4276486347       155.3767221568       204.0978228967         0.1491188032      2370.8851126747     -3066.2168079689      -601.7196171971      -320.6485361559       234.1020322897 
   34000       208.8650279087      9793.8300241552         0.9072662443      -330.7744215995      -953.9839828575       151.1304779167       207.7203737771         2.3723077155      2353.4398997134     -3064.9311116513      -603.7159303289      -310.4732788341       142.1320544343 
   35000       203.3976346809      9830.3324613416         0.9038973421      -313.5280305925      -920.4240339091       165.7717715998       204.4135665823         0.9742672628      2353.1262835432     -3064.9530133376      -579.7569095596       -38.9592793979      1915.1686020777 
   36000       195.3851380268      9936.7591305902         0.8942162396      -313.1044596753      -896.0928487094       161.3790163662       222.2107540527         3.6513483730      2363.3574619359     -3065.6579848754      -581.0334445619      -467.0949483841     -1062.6084014993 
   37000       207.0933313003      9866.0929823206         0.9006210867      -264.6382583795      -882.5614474907       165.4011471115       219.5658068435         6.1782746333      2374.6889448059     -3064.9551276952      -583.4404931897      -172.1896036396       642.5094245268 
   38000       205.7615788961      9938.3994357610         0.8940686517      -234.2815057768      -848.2310242363       183.3606883229       221.7816976312        -1.7994932913      2398.7925666661     -3065.0271394624      -585.3393441029      -175.2103754868       407.5519204500 
   39000       202.2595946279     10133.7217585247         0.8768359341      -232.6132969059      -836.1136267139       180.9366487987       230.0114694570         1.4647265159      2394.3716836184     -3064.3857477682      -578.5124073356      -324.6603002208      -622.8232107806 
   40000       214.3503219265      9962.9694595889         0.8918637581      -197.4775560789      -837.0540874919       184.2955386676       235.7810179840        -2.0977246982      2391.5656742337     -3063.4446130866      -583.1539805924       -43.4447147690      1060.1044025482 
   41000       222.5966725308      9969.8334771812         0.8912497289      -198.3949645775      -862.5768815524       174.8281901946       238.9708327657         0.4274948562      2343.3926439968     -3065.5517896069      -554.6442537588      -152.1901357030       317.7778132922 
   42000       228.1443209546     10083.3294828594         0.8812179944      -106.9815528367      -787.7164924734       206.6358358203       245.3470355701         4.9052462261      2398.1965527696     -3065.3025984760      -577.4985643836      -105.9725115492         6.8616583316 
   43000       229.8030185883     10134.2241323795         0.8767924675      -115.2022057150      -800.8863521908       179.5428889975       249.8944324601         0.0413850398      2414.4179037733     -3064.7259926907      -580.0569697708        81.8978576739      1333.5839790440 
   44000       227.9649812068     10049.8269515784         0.8841556602      -126.7756395894      -806.9754669257       193.2552434344       245.3788560190         5.1429419723      2383.1749092406     -3063.6389145475      -570.2885030446      -138.9814161408       -83.2781256840 
   45000       240.9446181035     10294.5064276264         0.8631410788       -18.6273019805      -737.5556512559       202.1796193235       269.6994712303         5.2518770905      2391.9640389018     -3065.4160527278      -541.2346050742      -128.1988140684      -729.8207996511 
   46000       240.5509784885     10087.8692879721         0.8808214232       -40.6848320067      -758.4386429969       213.9124474059       253.5160346426         1.4577110822      2412.9152781014     -3064.1819553522      -576.0581588769       179.6759501506      1497.8177382513 
   47000       246.7833407411     10349.2132328688         0.8585784430        24.4755391645      -711.8743373513       217.4518898535       271.9275359109         4.3112466908      2423.1255744983     -3065.4448748116      -563.2457094931        22.3016630778       -14.4029535693 
   48000       252.2272757925     10234.4839304887         0.8682031692        83.8157251223      -668.7777150428       231.6630721317       270.9819798646         0.6211626676      2465.2138253265     -3064.4236806709      -572.8340743624      -174.5085692722     -1730.7064570065 
   49000       255.2405364291     10563.8691919366         0.8411322804        82.6727326060      -678.9116471055       221.4231634395       274.0190786987         6.6378128770      2434.3982893484     -3065.1876208536      -550.2023706155      -609.6806782153     -4493.9571985703 
   50000       247.3007246147     10774.8566788580         0.8246616775        97.9869877368      -639.9066540523       231.1104025155       284.2969771896         2.9533673902      2435.7409910218     -3064.6147350617      -529.3936571077       -48.2426786764      -930.5679649182 
   51000       253.9835606011     10551.4570205956         0.8421217436        91.5533247055      -666.2805020190       236.7276435910       270.8934518563        -0.1774655236      2446.7700661411     -3064.2295043562      -556.2646937278      -124.9150030667     -1406.7147412975 
   52000       270.2343249413     10662.8512909285         0.8333241402       179.8578181735      -626.4648906581       240.0675084915       283.4808717076        11.1393929834      2448.1047582009     -3063.9870486364      -545.2703734050       -51.0702776020     -1485.0036893756 
   53000       269.0148231481     10639.6426751690         0.8351418985       166.2803166227      -636.4036539045       239.0579491786       287.5419154652         4.7327037840      2433.3237154302     -3064.4883301645      -536.5716075980       501.4212822578      2159.8549421961 
   54000       262.1724522025     10744.6273469772         0.8269818112       159.8238036420      -622.4439629968       227.2561037289       300.4271389885        10.3614096082      2433.9750394878     -3064.1780226075      -530.2856322027       443.9075000557      1812.9217665155 
   55000       283.9656185082     10625.4414424661         0.8362580916       275.3054569379      -571.9885601352       255.5615211927       301.6637971019        15.6924603541      2447.2254410001     -3065.0148608401      -527.1169189439      -242.5167614276     -3341.6257533731 
   56000       293.8692434303     10995.5976371877         0.8081062691       306.7383688357      -570.1059937614       264.0606596075       313.5289857805         3.7037849503      2417.3140031835     -3065.0611909937      -503.6522362894      -350.1779016312     -4096.5219845156 
   57000       291.8461567884     10822.3278188528         0.8210443753       308.7506959538      -562.0571992120       248.5179130080       317.6446883612         9.4874349413      2427.6760959580     -3062.6809241333      -502.7024073472       554.0227820135      1554.0019177351 
   58000       290.6980079032     10883.6011662694         0.8164219956       350.8225787178      -516.5594802985       272.1121297577       341.3821433203         8.1596894488      2460.5799459948     -3063.9721783443      -534.8212104757       769.4239124632      2637.2548509739 
   59000       290.3548262185     10835.7353484095         0.8200284612       287.4264970814      -578.9315795609       255.3963104067       295.6152119243         3.9502940220      2449.0472117858     -3063.6088228199      -519.3317848798       327.8274465529       255.6567672320 
   60000       293.8490628278     10585.9582432020         0.8393771428       346.8609678567      -529.9231800433       271.9251786210       325.4422233545         9.0626450339      2459.0026392069     -3064.9007847446      -530.4550815150        -4.1287893800     -2273.4655457767 
Loop time of 66.0277 on 64 procs for 50000 steps with 1002 atoms

Performance: 65.427 ns/day, 0.367 hours/ns, 757.258 timesteps/s
99.4% CPU use with 64 MPI tasks x no OpenMP threads

MPI task timing breakdown:
Section |  min time  |  avg time  |  max time  |%varavg| %total
---------------------------------------------------------------
Pair    | 7.891      | 11.433     | 15.463     |  65.5 | 17.32
Bond    | 0.22733    | 0.27285    | 0.32912    |   4.0 |  0.41
Kspace  | 8.0397     | 12.094     | 15.666     |  64.0 | 18.32
Neigh   | 22.262     | 22.537     | 22.761     |   2.9 | 34.13
Comm    | 17.583     | 17.8       | 18.129     |   3.4 | 26.96
Output  | 0.032647   | 0.032713   | 0.033141   |   0.0 |  0.05
Modify  | 1.1        | 1.1522     | 1.209      |   2.0 |  1.75
Other   |            | 0.7064     |            |       |  1.07

Nlocal:    15.6562 ave 21 max 11 min
Histogram: 2 5 9 11 6 4 6 11 6 4
Nghost:    4976.7 ave 5085 max 4880 min
Histogram: 3 3 10 8 13 8 8 6 4 1
Neighs:    12704.9 ave 20563 max 7122 min
Histogram: 10 3 4 13 14 7 6 2 3 2

Total # of neighbors = 813116
Ave neighs/atom = 811.493
Ave special neighs/atom = 5
Neighbor list builds = 50000
Dangerous builds not checked
unfix anneal

# RUN EQUILIBRATION PHASE AT FINAL TEMP
fix anneal all npt temp ${FINAL_TEMP} ${FINAL_TEMP} 100.0 iso ${pressure} ${pressure} 1000.0 # NPT, nose-hoover 100 fs T relaxation
fix anneal all npt temp 298.0 ${FINAL_TEMP} 100.0 iso ${pressure} ${pressure} 1000.0 
fix anneal all npt temp 298.0 298.0 100.0 iso ${pressure} ${pressure} 1000.0 
fix anneal all npt temp 298.0 298.0 100.0 iso 1.0 ${pressure} 1000.0 
fix anneal all npt temp 298.0 298.0 100.0 iso 1.0 1.0 1000.0 
run ${nSteps_ramp}
run 50000
PPPM initialization ...
WARNING: Using 12-bit tables for long-range coulomb (../kspace.cpp:321)
  G vector (1/distance) = 0.187612
  grid = 8 8 8
  stencil order = 5
  estimated absolute RMS force accuracy = 0.00691363
  estimated relative force accuracy = 2.08202e-05
  using double precision FFTs
  3d grid and FFT values/proc = 343 8
Per MPI rank memory allocation (min/avg/max) = 10.43 | 10.54 | 10.57 Mbytes
Step Temp Volume Density TotEng PotEng E_bond E_angle E_dihed E_coul E_long E_vdwl Enthalpy Press 
   60000       293.8490628278     10585.9582432020         0.8393771428       346.9069190373      -529.8772288627       271.9251786210       325.4422233545         9.0626450339      2516.1716622859     -3122.0238566430      -530.4550815150        -3.8701708577     -2272.0880358524 
   61000       292.2967899096     10947.6205687521         0.8116477300       410.1770947502      -461.9753954041       294.2658144901       358.1949549329        12.0879412716      2508.9488829667     -3122.2625129948      -513.2104760707       216.4389815303     -1213.4431646722 
   62000       298.6705411055     10420.9408191024         0.8526688269       351.1372014120      -540.0332293047       281.6967394974       313.3200975245        13.8724477300      2509.8498778611     -3121.9665976917      -536.8057942260       626.7697010366      1813.6254633652 
   63000       288.8975304347     11094.4208960927         0.8009080841       367.7394373901      -494.2703734120       270.9314185539       347.4845072580        10.2845743372      2513.3012457519     -3120.2138296348      -516.0582896782       547.8102315133      1112.9169387442 
   64000       310.6718396709     10806.5250256651         0.8222450198       396.7168265353      -530.2629691496       254.8060059181       327.9921033452        13.5239132876      2524.3628674016     -3121.2204859230      -529.7273731791       145.1102081890     -1596.4675955080 
   65000       310.1615244543     11299.8011813484         0.7863511261       385.2802578899      -540.1768639161       247.9668220521       316.7866630022        12.5726541275      2512.5568788597     -3121.0688133361      -508.9910686216       398.8621234755        82.4162284803 
   66000       298.0265594378     10805.3124729755         0.8223372906       404.0867135333      -485.1622105694       279.3732413746       336.7868582053        21.5294742319      2492.0730790507     -3120.0968007818      -494.8280626501       723.0086283669      2023.8165498314 
   67000       292.7138835474     10796.5532635843         0.8230044503       327.4944815948      -545.9025287436       267.2809515823       318.3570699592         7.5136153410      2512.9752573978     -3122.3978697303      -529.6315532936       472.8742500327       923.3002469853 
   68000       293.2681690004     11224.8785740105         0.7915997777       360.5174675856      -514.5334146215       247.3811480400       331.2864115859        10.0712836779      2526.0193284798     -3121.3068981297      -507.9846882754       364.2162598953        22.5944828196 
   69000       284.9914999437     10777.0541855689         0.8244935240       354.5288092109      -495.8262235130       278.8189469028       341.1386552165        17.8251282324      2532.2128089714     -3120.6877360268      -545.1340268093      -240.3846653975     -3785.1042885784 
   70000       288.6221528323     10961.4202624557         0.8106259199       343.8145294982      -517.3736121307       260.7877981711       330.1372836456        11.5205070999      2519.6981188209     -3121.3229404912      -518.1943793770      -172.2383517565     -3228.1335152360 
   71000       290.1631445905     10829.4160120339         0.8205069760       338.2273972018      -527.5587415508       253.2518657223       311.4899155057        14.0799181965      2536.9099881718     -3121.8109733991      -521.4794557480       752.2650744340      2621.5547769656 
   72000       305.1040991830     10754.5305798839         0.8262202908       410.5233460916      -499.8434764145       266.8350961528       351.7716513982         9.9125694938      2520.8594790804     -3121.1272851761      -528.0949873635       569.6024041778      1014.2515093190 
   73000       301.1099427489     11065.1581880757         0.8030261504       398.7918412569      -499.6572537876       256.6943916788       329.9966278790         8.8262852285      2504.1731124670     -3120.9688539334      -478.3788171076       284.7573678476      -706.6472041461 
   74000       299.9056923575     10771.9661101197         0.8248829687       421.1311079924      -473.7247557409       272.9276842533       336.6022940161        13.6557787253      2552.1609511285     -3121.4682951147      -527.6031687494       353.5402135345      -430.2464799861 
   75000       304.5996955637     11149.1381733053         0.7969774206       380.6554767068      -528.2063108902       249.9586429381       305.6001046714        17.7799120183      2521.8948208959     -3120.9136166886      -502.5261747253       383.5349547929        17.7091040869 
   76000       296.5805788856     11333.4814629963         0.7840142866       373.5311820803      -511.4032384670       240.6910414814       326.8311488464        13.0777753838      2523.3559537075     -3121.5705268157      -493.7886310703        16.2544126696     -2161.5513180828 
   77000       294.2401971235     11160.9450144701         0.7961343212       352.9545611378      -524.9966496986       249.0823292908       310.4176368830         5.2068426654      2544.2174074456     -3120.5378750685      -513.3829909149       462.2385411433       671.3973847331 
   78000       291.5515604208     11266.7301607238         0.7886592877       353.8109273514      -516.1179538655       246.4254048946       321.5768529547         7.8562497053      2531.1779989264     -3121.5604533357      -501.5940070108       142.7030818602     -1284.7853949550 
   79000       290.2916604287     11028.1404194913         0.8057216399       403.6618949376      -462.5077081983       283.0066558538       325.5017556967        15.3688869690      2514.1999730322     -3121.4935412431      -479.0914385069       570.6734526537      1038.4087764269 
   80000       300.7361666999     11053.6122111152         0.8038649460       382.9148822594      -514.4189432263       262.1208404934       337.1252598472        14.3812345474      2514.9096395963     -3121.4617975161      -521.4941201945       -12.7655148165     -2454.5078256666 
   81000       311.9307522372     11236.0353917182         0.7908137589       431.1804276204      -499.5556998735       254.9231388903       320.3481950862        12.4286064065      2527.5262846268     -3121.1328585610      -493.6490663223       509.2610916117       476.4907892667 
   82000       287.3661367077     10885.8224936095         0.8162553991       328.3535275194      -529.0869246768       247.6717629219       330.4870957881         9.7464675298      2515.2848811800     -3122.2895323176      -509.9875997790       349.3812417657       132.4509046320 
   83000       303.8841827347     11066.9738607273         0.8028944041       380.2527453717      -526.4741015860       243.4477910975       315.0269571648        10.5592110218      2541.7430043314     -3119.6177938161      -517.6332713854       368.3684051246       -73.6326284235 
   84000       282.6697819230     11115.7126186211         0.7993739752       326.4048183719      -517.0226933422       246.8930784152       326.9646264949        17.2806444863      2518.2960267964     -3122.4201696275      -504.0368999074       225.1975677368      -624.3073206955 
   85000       313.9973617056     10940.3604251965         0.8121863484       424.6741628409      -512.2282950960       254.8181635213       317.0242488662        13.2991597443      2545.3057818187     -3121.1804945055      -521.4951545411       621.8491932429      1235.7892049978 
   86000       300.0852785239     11107.1165197704         0.7999926325       371.4414022404      -523.9503090548       251.4411306328       317.2426906996        15.5828178832      2509.4745304120     -3122.4859731010      -495.2055055813       157.9762901473     -1317.8005621867 
   87000       301.3332398468     10982.2507560846         0.8090883719       373.7066093005      -525.4087575837       245.4460723657       325.8009428368         9.0495761486      2532.2717636828     -3122.3028121326      -515.6743004850       692.9147608631      1992.9973822169 
   88000       289.4828565914     11143.6665652792         0.7973687414       388.3842418847      -475.3720597540       267.8056721662       316.7619623386        14.5818023847      2538.4196637658     -3121.8201028900      -491.1210575194       627.6942225629      1472.5051196268 
   89000       305.2570496252     11196.1668671135         0.7936297743       441.4911891010      -469.3320055367       271.3861023843       331.6725980103         7.0665953424      2545.7978266301     -3121.7188170792      -503.5363108245       602.6669977848       987.0851219857 
   90000       295.2394836244     11196.4115690568         0.7936124292       422.5750720271      -458.3578007374       267.4918886328       350.3580689293        10.5570798683      2533.2345830399     -3121.3742175627      -498.6252036451       181.7658444182     -1474.7499189958 
   91000       297.3570312729     11037.9241027535         0.8050074725       394.1342712777      -493.1169208061       269.7084920041       327.5066230821        -1.4579991539      2521.9637557152     -3120.2661670219      -490.5716254318        42.0737084991     -2187.0267043885 
   92000       286.1457046985     10956.2700215913         0.8110069728       313.6036463147      -540.1952920074       254.4945415650       305.8655942313         7.4159962069      2543.1525022816     -3120.2899083733      -530.8340179190       497.9172165765      1153.5029121168 
   93000       313.6632930335     11023.5811209371         0.8060548824       409.4646872000      -526.4409796866       245.4297017005       320.3981507683        11.9370462733      2536.9626393667     -3120.6780522461      -520.4904655493       565.7505252183       972.1225872334 
   94000       301.1251873756     11124.5505815628         0.7987389080       404.1754889023      -494.3190929198       251.2546292601       325.8809414873         9.3234127008      2533.5624004635     -3119.4510237541      -494.8894530773       617.6726818564      1315.9330815645 
   95000       307.7599969403     11534.7687914420         0.7703328558       456.5024526075      -461.7890133520       267.4831191124       325.5496931619        20.5767793233      2531.2327356056     -3121.3284761676      -485.3028643876       525.0682635918       407.5893559192 
   96000       283.6572670275     10996.3232297188         0.8080529462       349.1513255315      -497.2226352120       261.5904062229       342.0577084488         9.2913224762      2545.7924143808     -3121.7923995095      -534.1620872311       363.7093288911        90.7775440095 
   97000       297.1653823169     11151.4424673809         0.7968127361       401.3496056254      -485.3297460550       247.7026941971       329.4599058609         9.4292355000      2561.3133464263     -3121.1315964687      -512.1033315705       623.2355691352      1364.3408799463 
   98000       299.6327440991     10991.3919958309         0.8084154752       387.5131481477      -506.5282950668       269.7485116164       298.5102956951         8.9517603171      2544.6225321852     -3120.4394276702      -507.9219672103       396.3411325632        55.0722692127 
   99000       299.8493876028     10796.2711875542         0.8230259531       379.5897225544      -515.0981395664       255.6885051857       326.1369394770        10.2710228016      2526.2075883800     -3121.5597217776      -511.8424736332       349.5724811814      -190.6431051856 
  100000       284.3634785588     11034.6097175757         0.8052492667       334.1863784171      -514.2947698387       257.7361315794       315.1220871452         4.3064758824      2548.0167123680     -3120.1497649843      -519.3264118295       651.0981330751      1969.2709817510 
  101000       295.2596671521     10960.4518796955         0.8106975407       368.9327825081      -512.0603136817       274.0027521034       307.7577478327         9.2431582351      2544.6692596913     -3122.9016692981      -524.8315622460      -314.3848273031     -4274.8242463563 
  102000       298.0595644769     10857.9274955475         0.8183524330       363.9650556809      -525.3823485557       265.9626493672       326.3963159154         7.8378056239      2505.5565888996     -3121.3626416059      -509.7730667558       193.3242189128     -1077.6063586958 
  103000       294.7582576926     11135.2308197686         0.7979728061       399.7356799988      -479.7613152288       277.1784574389       320.7870296977         7.2054402587      2518.6774281138     -3121.3971982751      -482.2124724628       553.5569952796       947.1993847939 
  104000       294.8458325113     10814.2802998188         0.8216553610       365.0498652440      -514.7084349271       284.0798619109       310.0571768178        17.6582748598      2511.0875004964     -3121.9591086784      -515.6321403336       206.3870157881     -1006.0087037657 
  105000       292.2453044068     10958.4604654028         0.8108448638       372.0208539688      -499.9780142128       256.9891924580       328.0795616035         5.1983322889      2527.2205176104     -3120.3301077724      -497.1355104011        39.0980257834     -2083.1384771668 
  106000       294.2514620051     10941.0919438877         0.8121320458       386.9203269514      -491.0644959359       255.0291051859       335.8522325534        11.3338617866      2561.1661337049     -3120.9254240604      -533.5204051062       347.5628810259      -246.6552424019 
  107000       296.2948906636     11202.7130172624         0.7931660277       401.2726220591      -482.8093645825       260.0358408360       329.0754847913        10.3965502014      2542.9935907181     -3121.3742163763      -503.9366147530       151.3237778829     -1529.8612086053 
  108000       300.3781560157     10998.4875980364         0.8078939313       378.3113062224      -517.9542902559       243.4985443916       324.4657724538        12.5002907629      2531.4164234597     -3120.3455545264      -509.4897667975       645.7980995913      1667.6061405033 
  109000       302.2395631259     11039.3600249104         0.8049027628       385.2002199293      -516.6194260713       254.3647720378       311.6517455869         9.7072942445      2542.3618205616     -3121.6871544543      -513.0179040478       179.5197033058     -1277.5366497183 
  110000       307.7348341917     10994.4699135458         0.8081891581       415.3557230512      -502.8606625291       281.9470783736       322.4085782713         9.9112870567      2524.5995365266     -3121.6910629676      -520.0360797897       492.6440747412       482.0186707513 
Loop time of 62.524 on 64 procs for 50000 steps with 1002 atoms

Performance: 69.093 ns/day, 0.347 hours/ns, 799.692 timesteps/s
99.4% CPU use with 64 MPI tasks x no OpenMP threads

MPI task timing breakdown:
Section |  min time  |  avg time  |  max time  |%varavg| %total
---------------------------------------------------------------
Pair    | 7.3008     | 10.781     | 14.625     |  65.9 | 17.24
Bond    | 0.26307    | 0.28062    | 0.31451    |   1.9 |  0.45
Kspace  | 8.1652     | 12.031     | 15.508     |  62.5 | 19.24
Neigh   | 21.411     | 21.682     | 21.911     |   2.8 | 34.68
Comm    | 15.844     | 16.06      | 16.36      |   3.4 | 25.69
Output  | 0.030802   | 0.030855   | 0.031292   |   0.0 |  0.05
Modify  | 1.0786     | 1.1302     | 1.1654     |   2.0 |  1.81
Other   |            | 0.5277     |            |       |  0.84

Nlocal:    15.6562 ave 23 max 7 min
Histogram: 1 1 6 6 7 19 14 5 3 2
Nghost:    4815.41 ave 4881 max 4739 min
Histogram: 2 3 6 7 8 11 10 9 3 5
Neighs:    12232.1 ave 18557 max 5598 min
Histogram: 5 3 6 4 15 8 5 6 7 5

Total # of neighbors = 782855
Ave neighs/atom = 781.292
Ave special neighs/atom = 5
Neighbor list builds = 50000
Dangerous builds not checked
unfix anneal
undump anneal

# RETURN TO LESS FREQUENT NEIGHBOR BUILDS
neigh_modify every 1 delay 10 check yes one 10000 # More relaxed rebuild criteria can be used

#===========================================================
# RUN EQUILIBRIUM SIM
#===========================================================

# UPDATE RUN PARAMETERS AND CREATE FIX
fix equil all npt temp ${FINAL_TEMP} ${FINAL_TEMP} 100.0 iso ${pressure} ${pressure} 1000.0 # NPT, nose-hoover 100 fs T relaxation
fix equil all npt temp 298.0 ${FINAL_TEMP} 100.0 iso ${pressure} ${pressure} 1000.0 
fix equil all npt temp 298.0 298.0 100.0 iso ${pressure} ${pressure} 1000.0 
fix equil all npt temp 298.0 298.0 100.0 iso 1.0 ${pressure} 1000.0 
fix equil all npt temp 298.0 298.0 100.0 iso 1.0 1.0 1000.0 

# CREATE COORDINATE DUMPS FOR EQUILIBRIUM
dump equil all custom ${coords_freq} equil.lammpstrj id type x y z mol
dump equil all custom 1000 equil.lammpstrj id type x y z mol
dump_modify equil sort id format float %20.10g

# RUN EQUIL
run		${nSteps_equil}
run		100000
PPPM initialization ...
WARNING: Using 12-bit tables for long-range coulomb (../kspace.cpp:321)
  G vector (1/distance) = 0.186841
  grid = 8 8 8
  stencil order = 5
  estimated absolute RMS force accuracy = 0.0071789
  estimated relative force accuracy = 2.1619e-05
  using double precision FFTs
  3d grid and FFT values/proc = 343 8
Per MPI rank memory allocation (min/avg/max) = 11.04 | 11.04 | 11.07 Mbytes
Step Temp Volume Density TotEng PotEng E_bond E_angle E_dihed E_coul E_long E_vdwl Enthalpy Press 
  110000       307.7348341917     10994.4699135458         0.8081891581       415.3603792061      -502.8560063741       281.9470783736       322.4085782713         9.9112870567      2511.8106444818     -3108.8975147679      -520.0360797897       492.6680451924       482.1391268255 
  111000       294.4656209162     11377.6035307120         0.7809738984       426.8145133125      -451.8093149764       281.5100303344       344.2603168342        12.7186376391      2521.9436052394     -3108.4848551003      -503.7570499232       207.8963223898     -1319.3352471560 
  112000       296.5297362536     11190.5141393382         0.7940306650       388.6751370715      -496.1075796951       260.2732866332       316.0402625614        14.0649815648      2513.9579723157     -3109.3142516250      -491.1298311452       283.1584662538      -646.5396302581 
  113000       293.3908618455     10977.6381298293         0.8094283377       345.5044804066      -529.9124915903       259.3151825053       318.9979000738         4.3616364619      2514.1476375664     -3108.1142710171      -518.6205771806       331.6351685123       -86.6303591434 
  114000       294.6405323772     11191.8476364359         0.7939360571       380.2772872435      -498.8684402638       283.1138424302       325.3300229474         7.4052610389      2503.2334919972     -3107.8178934324      -510.1331652450       -16.5358117714     -2431.1307779161 
  115000       290.3008699547     10962.9364210831         0.8105138115       402.7576479717      -463.4394344637       284.4530013155       338.1255443696         8.3199228563      2523.3054155369     -3107.2295909516      -510.4137275903       204.4443674519     -1240.3636029977 
  116000       296.6793502503     10917.9610670497         0.8138526350       344.9919278732      -540.2372057691       264.6863638691       318.4879538918        13.5845175221      2509.2302094627     -3108.2236552908      -538.0025952241        74.7121746175     -1697.4464530068 
  117000       302.0570529554     11072.2789032174         0.8025097147       401.1482466488      -500.1268271731       268.9456991648       314.4327508309        10.4981958806      2527.6670448091     -3108.6462113187      -513.0243065398       283.5771347253      -728.0944478412 
  118000       292.4265231564     10932.4268747981         0.8127757437       379.9355398220      -492.6040472083       280.3225023210       338.3181523640        17.0613498081      2510.9909145048     -3108.0027517670      -531.2942144392       250.5389901774      -811.5779247559 
  119000       302.9177383982     10982.1670326277         0.8090945400       360.6489953631      -543.1941838165       273.5617406392       289.1850934293        10.7056593278      2508.7045204050     -3106.9078094770      -518.4433881408       299.1892069713      -383.7312129508 
  120000       288.6089242787     11085.7589277276         0.8015338816       381.4984940721      -479.6501763196       272.8288964450       326.4968930081        16.7447088513      2523.3707807526     -3108.3359370727      -510.7555183041       465.3064262722       518.3747105500 
  121000       305.2871539935     11015.0666612428         0.8066779491       414.9627078797      -495.9503118967       255.3622429546       332.6665795073        14.5752970659      2516.0231794108     -3107.9328195301      -506.6447913053       116.8013861479     -1856.0440780075 
  122000       296.5951013145     10909.0428288370         0.8145179667       332.5552283375      -552.4225241003       250.5965038033       300.7161033538         3.2381914002      2502.1366248357     -3108.4921087095      -500.6178387837       444.7210033775       705.0141366584 
  123000       299.0179885696     10939.1405323377         0.8122769204       348.1431943242      -544.0639469602       247.1611096315       316.6701878267        12.9301580808      2499.8886708022     -3109.5904096944      -511.1236636070        29.9058672894     -1994.7663204530 
  124000       307.1146268576     11002.6023150076         0.8075917978       379.0441228080      -537.3216937974       257.7060147516       315.4177008927        15.2526487320      2495.9638509373     -3109.6867407394      -511.9751683717       141.7104806972     -1479.0675151023 
  125000       289.1152401708     10725.1925306225         0.8284803614       320.0453987019      -542.6140124210       270.0007108382       313.3422212928        12.7771265430      2499.0835908286     -3110.2367828972      -527.5808790264       527.4807752904      1326.1780566632 
  126000       298.4153881431     10923.5119294285         0.8134390699       346.9185764387      -543.4905312009       258.8224081769       293.3307737219        10.6353795005      2524.3736863012     -3107.5401627627      -523.1126161387       288.2683791813      -368.1555063391 
  127000       296.1969439112     10995.2256204841         0.8081336109       336.2395123598      -547.5502216570       235.0232720367       315.8745149718         9.2805031131      2519.0260843025     -3108.7389756573      -518.0156204238       202.1797981704      -836.0230553338 
  128000       311.4395914332     10886.2139153710         0.8162260500       377.4204857058      -551.8501206702       253.7046254835       306.2247735020        14.1768410555      2483.3424830490     -3107.5192143379      -501.7796294223       301.0439297326      -481.0689397574 
  129000       291.2418749269     11313.5511831647         0.7853954289       396.9566032993      -472.0482411713       280.5557543479       309.0462248624        18.9652416702      2525.6589311538     -3109.1244437937      -497.1499494119       437.3603860485       244.8765465648 
  130000       310.5492150161     11123.5955813381         0.7988074826       394.0138293660      -532.6000799946       256.2500811071       306.9759677927        10.2739414791      2506.8181638422     -3108.4559811763      -504.4622530393       467.0630011013       450.2919839473 
  131000       302.0163736972     11172.4960149484         0.7953112153       434.4753530618      -466.6783423613       271.8799062223       323.8957916284        13.6048831991      2523.0796666188     -3107.2289189717      -491.9096710580       569.3111579480       827.5212104729 
  132000       294.8331669278     11509.1940163405         0.7720446255       471.5652724295      -408.1552362893       275.7646002915       344.2336673130        13.4327840876      2551.1635910297     -3106.7961683963      -485.9537106147       485.4791707834        82.8949407965 
  133000       304.9143843599     10909.2287551776         0.8145040848       391.5428588987      -518.2578942522       238.2152213308       332.9977878974        12.4140284553      2526.8305505758     -3108.1491542728      -520.5663282387       637.8734808796      1548.2762983751 
  134000       310.2708456219     11238.0358473351         0.7906729881       441.1395231971      -484.6437901095       275.9226911639       309.7724643695        10.4678571800      2545.6659653107     -3108.6570681800      -517.8156999536       728.2080551378      1751.5368787701 
  135000       297.4317541749     11500.4057196504         0.7726346009       428.7439942300      -458.7301553657       283.9104418878       313.9190275501         8.1530991631      2533.2388587733     -3107.7154803563      -490.2361023837       127.0504662995     -1798.7754110805 
  136000       306.4784468805     10931.7819245652         0.8128236956       364.6684750145      -549.7991135900       254.1725011510       317.9002353948         9.1586011859      2502.9866987240     -3107.9629902023      -526.0541598435       191.2667283457     -1087.6436256556 
  137000       307.5208864844     11148.8848003275         0.7969955330       436.2490840507      -481.3289263158       268.5319543506       339.6052146320        13.0895523040      2500.3806339842     -3107.3494743993      -495.5868071873       413.5223636710      -139.7749840001 
  138000       295.9597878157     10697.5202472325         0.8306234696       330.2510546448      -552.8310551819       234.7007417166       323.4048774550        11.6472820257      2516.5351778214     -3108.1822382206      -530.9368959800       372.1481186838       268.5496458908 
  139000       307.7443191739     10952.8508612609         0.8112601455       425.2103219500      -493.0343648335       277.4086365337       321.5299672325         3.6344177773      2524.3722674170     -3108.7919197542      -511.1877340398       798.6350050128      2337.7601835204 
  140000       285.2608141792     11500.7948923479         0.7726084559       361.7609578408      -489.3976522376       256.0367771763       337.6393520764         2.4524288984      2506.5598698139     -3109.4018409263      -482.6842392763      -138.5887073580     -2983.1141072942 
  141000       297.3335974931     10809.3085691410         0.8220332806       389.1715570578      -498.0097135279       279.6623327519       305.0118880482        10.2853324502      2552.2255400702     -3109.3434962014      -535.8513106471      -116.1028568486     -3205.1879618392 
  142000       300.2290886917     11166.6601453821         0.7957268573       432.7896592912      -463.0311514681       274.9281499544       333.8362256499        11.9214526211      2531.6805454854     -3108.8104487914      -506.5870763875       553.6741363596       742.2861341502 
  143000       296.7852261219     11013.1060529069         0.8068215580       387.3604768195      -498.1845682809       268.9754943682       332.7860233598         5.1157212001      2504.8077369930     -3108.3896266292      -501.4799175727       735.9549213305      2170.3748627407 
  144000       300.7669787913     11125.0044291635         0.7987063232       422.7951909387      -474.6305713836       273.3282131988       338.3685888090         9.4847329565      2520.5750065928     -3107.5313098656      -508.8558030750       515.8234381852       573.3750044354 
  145000       293.8937929503     10801.8810251327         0.8225985236       386.4342685168      -490.4833447138       249.1745145432       337.3971288671        18.7165007901      2516.7947791509     -3108.2732319870      -504.2930360781       914.4501856427      3351.7509078142 
  146000       288.9710493253     10953.9109529707         0.8111816338       347.7470449184      -514.4821308773       246.8957701045       332.2505922916        17.9678533654      2526.3685227504     -3108.8694160921      -529.0954532971       304.6522624961      -269.7612695739 
  147000       299.5251221320     10923.9556430403         0.8134060293       424.6744227984      -469.0458989745       273.2399113590       345.2179805709         6.1644130202      2547.0225541507     -3108.2550655389      -532.4356925364      -251.1236518767     -4241.9069021073 
  148000       304.4712204339     10981.1301884592         0.8091709351       393.1391676874      -515.3392769915       276.5326619137       305.8774191241        16.7216615837      2496.6169819838     -3108.5543730861      -502.5336285107       425.1938113932       200.1557284704 
  149000       290.1813859866     11080.1827100172         0.8019372619       374.2783759102      -491.5621913532       267.0371264469       310.3905763426         7.1856181952      2536.5413612925     -3108.0099012427      -504.7069723877       369.7454611293       -28.0514130489 
  150000       292.7139276258     10879.4523253867         0.8167333353       306.6408935467      -566.7562483126       254.4191141368       306.3927463399         9.4770008720      2487.0247549799     -3108.7729736224      -515.2968910188      -147.5725728311     -2862.7082071499 
  151000       289.1129771760     11090.4963637944         0.8011914969       376.7389829264      -485.9136758932       277.6912971972       326.6864618289        10.9408355074      2524.0850055783     -3108.1519869418      -517.1652890631       572.7288797704      1211.7326530558 
  152000       309.0521519256     11177.4960737874         0.7949554466       421.0797111104      -501.0672750840       269.5246333007       318.8883946414        16.4856321399      2496.0030095456     -3108.3135160537      -493.6554286581        38.6220716433     -2346.1886248749 
  153000       288.3983119620     11290.5040347944         0.7869986456       388.3289846357      -472.1912626503       270.9973273850       322.4396385450         8.9288247922      2516.0601266511     -3107.2472248991      -483.3699551245       704.3488950100      1919.2220556342 
  154000       293.6280574347     10722.3841244392         0.8286973569       316.9361356818      -559.1885783461       245.8225736405       320.4114736149         0.2248117609      2510.0498857044     -3110.3409481064      -525.3563749604       251.5256466813      -418.2925647024 
  155000       291.7957919440     11264.3854333350         0.7888234503       365.5989687557      -505.0586482479       256.7258846110       324.6292644013        13.4900972914      2509.2325006495     -3109.1818100230      -499.9545851781       523.2343437652       959.5559275117 
  156000       295.9125061087     10983.6274988418         0.8089869567       362.3490383905      -520.5919927112       266.6663275886       320.8312218780         3.8642418020      2508.2185481655     -3107.5320826888      -512.6402494565       356.2459961146       -38.0999752205 
  157000       298.2423508904     11037.7562408137         0.8050197150       378.7817622179      -511.1110384487       260.9382585173       327.7205367853        12.6575553689      2517.9784772754     -3108.1459072531      -522.2599591425       371.9401205945       -42.5014388689 
  158000       302.8980594625     11156.4463862038         0.7964553475       406.3898180907      -497.3946432604       252.9300957253       324.6622757006        10.6132390265      2515.8230558277     -3109.5797649923      -491.8435445482       200.1351715502     -1267.6576133740 
  159000       293.7136833021     11272.9567618287         0.7882236729       387.6435831454      -488.7366205631       260.7554254244       351.0986011351        10.7784125831      2514.3071324871     -3108.6956399159      -516.9805522769       200.4481539581     -1138.6270830103 
  160000       289.0191949330     10835.8895206894         0.8200167939       318.2607950547      -544.1120371655       243.9382562342       327.5743654973        13.9240917653      2500.3412427738     -3107.7710918866      -522.1189015494       574.1820518716      1619.4438777951 
  161000       299.8319237974     11133.3989406296         0.7981041038       401.8488969851      -492.7868567928       264.9264159748       341.5526195596         4.1129183170      2501.5574084702     -3109.1071236090      -495.8290955053       420.1757587083       112.8715378817 
  162000       305.7872813964     11039.6391924516         0.8048824086       445.6164316237      -466.7888637266       279.1352180486       332.9679809429         9.0214869384      2516.1745417180     -3109.4973829502      -494.5907084243       353.5015038280      -572.1359626599 
  163000       293.9450392991     10895.4123640151         0.8155369514       375.0405128037      -502.0300088141       261.1368324570       336.8512601033         8.9029993047      2520.2685516555     -3106.9254167586      -522.2642355760       591.4043478495      1361.6488056398 
  164000       301.7377577140     11139.6705865262         0.7976547704       408.7296007033      -491.5927628956       262.5635725493       335.7579262793        14.8986427003      2494.2467468309     -3107.4488758505      -491.6107754050       863.6603787085      2800.2517794614 
  165000       300.2633915794     10773.6959298778         0.8247505259       339.9220421807      -556.0011212215       242.2895383727       308.1497413388        18.3537054296      2522.2770943341     -3108.1594938638      -538.9117068329       -18.1924042671     -2279.1937085795 
  166000       289.9997645851     10828.0851488239         0.8206078232       353.4160342459      -511.8826127398       252.9910255933       329.5645240516         6.6578719542      2509.5389305673     -3108.7191733052      -501.9157916009       403.6825628673       318.3107768128 
  167000       306.4701083937     11246.0109973142         0.7901122794       485.3874576415      -429.0552506621       281.6988201122       343.0095586335         9.0743463101      2547.0910249499     -3107.9188400007      -502.0101606672       241.2686823824     -1488.4244284716 
  168000       304.1319519466     10986.5929016137         0.8087686022       413.0658891042      -494.4002493634       251.3095506001       328.1753415843        13.1812403469      2539.0749618223     -3109.3634709207      -516.7778727962       162.8196584696     -1561.8115231900 
  169000       291.8010211252     11119.4438778212         0.7991057360       357.9390401844      -512.7341796023       253.8191659778       309.6873721055        20.5511374181      2519.1337091289     -3108.7452680805      -507.1802961522        59.1064583537     -1842.7609070773 
  170000       295.7998665099     10859.3167706642         0.8182477380       356.8461640294      -525.7587740667       256.1608919539       323.1760222302         5.1185112669      2503.1611906205     -3108.4754531033      -504.8999370349       663.9703790153      1939.2583414266 
  171000       294.3022255738     11175.2126887751         0.7951178766       393.5310187461      -484.6052720134       265.3078569963       330.2834510938         4.3752563377      2492.2144708842     -3108.0053333737      -468.7809739516       421.9953699984       174.6504074447 
  172000       310.0527218774     10775.1730851849         0.8246374618       419.2281844690      -505.9042932025       276.7010454883       316.0739982115        16.3672210878      2518.5849085510     -3108.4584757455      -525.1729907955       545.2282835225       801.8086590016 
  173000       301.2737925735     11098.1180569255         0.8006412743       435.4843003762      -463.4536882774       284.2945828132       324.5817698152         8.5948237803      2541.3875159301     -3108.0977286540      -514.2146519621       127.9951070870     -1899.7857569473 
  174000       293.2490795845     10809.7260231513         0.8220015350       387.6216911695      -487.3722322128       270.2061988257       306.9551047136        17.2752292859      2549.1737312360     -3108.5209790742      -522.4615171998       704.5394847671      2010.2776652933 
  175000       284.7854993219     11011.3692138286         0.8069488191       339.9059265211      -509.8344434303       267.1628722136       301.3246653191        13.5067829778      2514.5454028329     -3109.2563848381      -497.1177819356       208.9649873538      -815.3765878670 
  176000       289.9231717324     10957.8963483057         0.8108866064       363.3879586260      -501.6821513057       251.0825952134       317.5329163005        15.8733219144      2530.4433437779     -3109.2760817606      -507.3382467514       432.1024584724       429.9770861329 
  177000       299.7812781316     11427.7809415934         0.7775447770       426.0657108781      -468.4189268251       278.5856667635       319.7820260416         5.2702849248      2527.0020408009     -3106.8185519092      -492.2403934465       518.3724421807       553.8543564670 
  178000       297.7628036650     11351.9947887232         0.7827356821       410.1338694545      -478.3280625840       257.4841139974       328.9241365725         8.3408777897      2523.5394207735     -3109.5744478539      -487.0421638631       374.9697759351      -212.3984552854 
  179000       289.6307957347     11293.0300217324         0.7868226124       379.5093745162      -484.6883465860       293.3541113425       298.7379912022        12.1804676346      2510.6972738906     -3108.4504426829      -491.2077479729       418.8289180756       238.7382992162 
  180000       303.3436173258     10882.3647266073         0.8165147564       401.3180061696      -503.7959066617       265.5624152988       321.5360411864        13.7622249531      2522.9646506511     -3109.3723466615      -518.2488920896       411.9579983697        67.0412561150 
  181000       301.7639467106     10790.6684841090         0.8234532825       374.6252594800      -525.7752466077       249.1253803896       309.2809463314        14.4415345244      2527.0921957245     -3107.8230115832      -517.8922919944       398.0177688838       148.6457762143 
  182000       301.3454009944     11300.5307896920         0.7863003561       381.3352662349      -517.8163869703       247.7057084300       330.6588619254         7.1860342226      2510.3992148988     -3109.4526920058      -504.3135144412       281.5198911255      -605.6513796789 
  183000       289.3667057995     11313.8101344102         0.7853774527       396.4039500762      -467.0057818910       269.5362874923       324.8893503090        17.9312409359      2526.2368546647     -3107.9213686186      -497.6781466743       257.0406838768      -844.6242387835 
  184000       299.3180066633     11200.9521757450         0.7932907171       397.9114105292      -495.1909220012       263.9121519649       322.4269783474        15.4283226176      2519.5034541813     -3108.5842449754      -507.8775841370       296.9602532612      -617.9886082606 
  185000       300.7375099084     11064.6970520312         0.8030596176       412.7824271257      -484.5554062130       270.7245226910       310.9786919004        16.0334951036      2519.7063047677     -3106.4437944785      -495.5546261973       300.4738347021      -695.9812941247 
  186000       310.0434444125     11028.6203619022         0.8056865766       415.1897110025      -509.9150846540       270.0755714837       293.3235297625        14.1169441352      2533.2339384493     -3107.9741734632      -512.6908950214      1054.2336029543      3973.1376499218 
  187000       298.2485290973     11319.9586654942         0.7849508683       381.7491097075      -508.1621254363       261.9474281723       298.1276505318         7.3365427793      2525.6420288785     -3108.1270145154      -493.0887612828      -165.4825051857     -3314.7474809687 
  188000       296.9249055923     10923.9806518199         0.8134041671       392.0313326147      -493.9304868128       278.4608205950       304.3557962180         7.3403134814      2525.5490098288     -3109.0431068601      -500.5933200758       568.5784863624      1108.1636713835 
  189000       303.7514690419     11127.0797773606         0.7985573539       429.8728441739      -476.4580128800       260.3967032962       318.4845822174         8.2068142394      2544.1685424465     -3108.2911053583      -499.4235497212       330.8660346872      -610.1097625384 
  190000       283.0840063297     10658.7367487592         0.8336458244       313.5503497609      -531.1131209520       261.9272425957       314.0149694435        14.0051812087      2519.6036874152     -3107.1700388914      -533.4941627237      -167.0959619166     -3092.0320619761 
  191000       283.5781330531     11272.2538218236         0.7882728267       340.0714823541      -506.0663591598       258.8404074193       329.2811798057         2.9503783773      2519.8188369622     -3106.6402650095      -510.3168967150       173.3570322984     -1014.1135729031 
  192000       303.1007481494     11204.0184966482         0.7930736089       407.9812835874      -496.4079584152       260.5868574760       305.6953414912         9.3402338826      2532.8908669387     -3106.9802770663      -497.9409811374       417.2899023404        56.9685987149 
  193000       285.3815465941     11239.7453070832         0.7905527341       371.1708040391      -480.3480463153       278.8274811222       317.5288050135        12.7559378184      2526.6826204241     -3109.8589533219      -506.2839373716       291.3881996394      -486.7162536867 
  194000       305.4515730404     11022.5856719854         0.8061276771       423.7739520027      -487.6296598231       263.7436038809       314.9459758039        14.1495654032      2536.5278117022     -3108.6450711541      -508.3515454593       661.4242891993      1478.3561163154 
  195000       301.8856671816     11457.7819792389         0.7755088550       430.8384910920      -469.9252034245       266.4458382125       331.5325266045         7.3556116374      2537.7925875251     -3107.1550864042      -505.8966809997       737.7006547387      1836.3983729880 
  196000       310.6566525216     11324.8122639178         0.7846144533       442.8654754927      -484.0690049151       276.3795293126       304.7072346618        14.2238812994      2506.9242116860     -3106.5440152264      -479.7598466485       127.3149088494     -1910.5660829380 
  197000       307.9058354398     11121.4950754960         0.7989583526       417.6298072651      -501.0968102763       272.4665163430       317.7040567322        10.9430824269      2507.7517940760     -3108.0380809938      -501.9241788606       258.4269807649      -981.5483801894 
  198000       286.9437899860     11414.6212379770         0.7784411938       374.4746503652      -481.7056075432       278.3440534118       309.6166638001        14.2508173596      2529.3549466240     -3108.2094427580      -505.0626459806       557.2685159875      1098.0553253701 
  199000       296.2976450913     10773.0407611828         0.8248006835       364.4797283651      -519.6104769128       264.2370090835       309.3185574012        14.8892034036      2524.1781846508     -3108.6614565380      -523.5719749139       637.3038758257      1736.4753164685 
  200000       301.7224788940     11121.3825159363         0.7989664388       417.8271847951      -482.4495900004       268.5805615319       327.1187666547         8.5509299967      2534.8512980482     -3107.4002079349      -514.1509382969      -172.8792198672     -3641.9754324611 
  201000       302.9327230489     10874.9611805430         0.8170706301       387.1400387990      -516.7478514443       273.8607591485       307.7017209682        13.8913968647      2517.2870584237     -3109.0884066351      -520.4003802143       358.5671584692      -180.1566997501 
  202000       307.7465003525     11016.7884440928         0.8065518757       400.5867357032      -517.6644592609       263.5226145703       299.6295299456         8.6395829299      2512.6244746689     -3109.1883172645      -492.8923441111       485.0228574194       525.5298369580 
  203000       294.0024270675     11139.8050781787         0.7976451402       374.2123201898      -503.0294345266       260.8672482237       312.1524816201        12.7803930355      2517.5137303143     -3107.2609088080      -499.0823789122       281.2589319737      -572.1524258396 
  204000       311.3546301769     11281.9344322499         0.7875964390       464.6328271004      -464.3842726558       282.4575359136       317.7263170836        14.0870032521      2538.2546181996     -3108.4272206407      -508.4825264640       460.1971610376       -26.9587270888 
  205000       302.8074436005     10750.4743444607         0.8265320300       409.6457680903      -493.8683144799       265.3262133310       315.0720928003        18.9691451826      2510.3110741455     -3108.5380803455      -495.0087595938       430.8819744004       135.4482565736 
  206000       296.8974779922     11268.6935001995         0.7885218800       417.9761502010      -467.9038310041       285.5013642604       322.7993024183         8.8591900529      2521.3259670580     -3108.3902232899      -497.9994315037       -80.4781310268     -3033.0241933678 
  207000       294.9300961233     11032.9543450439         0.8053700854       373.8792493373      -506.1304758292       252.7171750529       321.5609443662         9.0681489039      2545.3474791869     -3107.8097460094      -527.0144773298       261.4151794269      -698.9499618177 
  208000       316.0939284375     11090.3793171105         0.8011999526       439.1913553604      -503.9668192289       270.4718179400       317.9126279640        13.6893227406      2522.6320782539     -3108.9162262400      -519.7564398874       520.7467879292       504.2322346230 
  209000       284.6072477672     11098.0170747113         0.8006485594       363.3652848217      -485.8432197701       258.1463594153       339.2074977106         2.2855451149      2539.5991946906     -3108.9286309097      -516.1531857918       391.1030362108       171.3759886666 
  210000       300.1159058751     11078.5243964894         0.8020573016       418.6722275918      -476.8108693139       259.3881103578       344.4208285485        15.9256716942      2504.5745747379     -3109.3153342231      -491.8047204293       278.4512175957      -867.8712129007 
Loop time of 62.8412 on 64 procs for 100000 steps with 1002 atoms

Performance: 137.490 ns/day, 0.175 hours/ns, 1591.314 timesteps/s
99.3% CPU use with 64 MPI tasks x no OpenMP threads

MPI task timing breakdown:
Section |  min time  |  avg time  |  max time  |%varavg| %total
---------------------------------------------------------------
Pair    | 13.259     | 19.931     | 27.281     |  95.1 | 31.72
Bond    | 0.49788    | 0.53342    | 0.56929    |   2.3 |  0.85
Kspace  | 16.798     | 24.116     | 30.836     |  86.3 | 38.38
Neigh   | 1.7052     | 1.7203     | 1.7368     |   0.7 |  2.74
Comm    | 13.359     | 13.496     | 13.676     |   2.3 | 21.48
Output  | 0.053943   | 0.053972   | 0.054542   |   0.0 |  0.09
Modify  | 2.1043     | 2.1993     | 2.2558     |   2.5 |  3.50
Other   |            | 0.7913     |            |       |  1.26

Nlocal:    15.6562 ave 23 max 10 min
Histogram: 4 3 6 18 11 6 11 2 1 2
Nghost:    4773.48 ave 4857 max 4697 min
Histogram: 4 6 6 6 10 14 6 3 5 4
Neighs:    12129.6 ave 22790 max 5608 min
Histogram: 4 11 9 13 12 6 5 0 2 2

Total # of neighbors = 776294
Ave neighs/atom = 774.745
Ave special neighs/atom = 5
Neighbor list builds = 3883
Dangerous builds = 0
unfix equil
undump equil

# WRITE RESTART FILES, CLEANUP, AND EXIT
write_restart   md-4.end.restart
PPPM initialization ...
WARNING: Using 12-bit tables for long-range coulomb (../kspace.cpp:321)
  G vector (1/distance) = 0.186686
  grid = 8 8 8
  stencil order = 5
  estimated absolute RMS force accuracy = 0.00723343
  estimated relative force accuracy = 2.17833e-05
  using double precision FFTs
  3d grid and FFT values/proc = 343 8
write_data      md-4.end.data pair ii
PPPM initialization ...
WARNING: Using 12-bit tables for long-range coulomb (../kspace.cpp:321)
  G vector (1/distance) = 0.186686
  grid = 8 8 8
  stencil order = 5
  estimated absolute RMS force accuracy = 0.00723343
  estimated relative force accuracy = 2.17833e-05
  using double precision FFTs
  3d grid and FFT values/proc = 343 8
unfix		averages
Total wall time: 0:03:22
