
#===========================================================
# GENERAL PROCEDURES
#===========================================================
units		real	# g/mol, angstroms, fs, kcal/mol, K, atm, charge*angstrom
dimension	3	# 3 dimensional simulation
newton		on	# use Newton's 3rd law
boundary	p p p	# periodic boundary conditions
atom_style	full    # molecular + charge

#===========================================================
# FORCE FIELD DEFINITION
#===========================================================
special_bonds  lj   0.0 0.0 0.0  coul 0.0 0.0 0.0     # NO     1-4 LJ/COUL interactions
pair_style     hybrid lj/cut/coul/long 14.0 14.0 # outer_LJ outer_Coul (cutoff values, see LAMMPS Doc)
kspace_style   pppm 0.0001          # long-range electrostatics sum method
bond_style     harmonic             # parameters needed: k_bond, r0
angle_style    harmonic             # parameters needed: k_theta, theta0
dihedral_style hybrid opls            # parameters needed: V1, V2, V3, V4
pair_modify    shift yes mix arithmetic       # using Lorenz-Berthelot mixing rules

#===========================================================
# SETUP SIMULATIONS
#===========================================================

# READ IN COEFFICIENTS/COORDINATES/TOPOLOGY
read_data ${data_name}
read_data md-22.data
  orthogonal box = (-11.3074 -11.3074 -11.3074) to (11.3074 11.3074 11.3074)
  4 by 4 by 4 MPI processor grid
  reading atoms ...
  1002 atoms
  reading velocities ...
  1002 velocities
  scanning bonds ...
  1 = max bonds/atom
  scanning angles ...
  6 = max angles/atom
  scanning dihedrals ...
  3 = max dihedrals/atom
  reading bonds ...
  835 bonds
  reading angles ...
  1169 angles
  reading dihedrals ...
  501 dihedrals
  4 = max # of 1-2 neighbors
  3 = max # of 1-3 neighbors
  4 = max # of 1-4 neighbors
  5 = max # of special neighbors
include ${settings_name}
include md-22.in.settings
     # Non-bonded interactions (pair-wise)
     pair_coeff           1          1          lj/cut/coul/long     0.006622             2.470285
     pair_coeff           1          2          lj/cut/coul/long     0.001687             2.249206
     pair_coeff           1          3          lj/cut/coul/long     0.024381             3.135625
     pair_coeff           1          4          lj/cut/coul/long     0.032587             2.727555
     pair_coeff           2          2          lj/cut/coul/long     0.001000             1.779049
     pair_coeff           2          3          lj/cut/coul/long     0.003945             3.079410
     pair_coeff           2          4          lj/cut/coul/long     0.006203             2.607070
     pair_coeff           3          3          lj/cut/coul/long     0.213246             3.445727
     pair_coeff           3          4          lj/cut/coul/long     0.182074             3.229729
     pair_coeff           4          4          lj/cut/coul/long     0.200667             2.901179

     # Stretching interactions
     bond_coeff           1           366.904251           1.096103
     bond_coeff           2           612.219900           0.957501
     bond_coeff           3           368.709924           1.411527

     # Bending interactions
     angle_coeff          1           40.926667            108.205025
     angle_coeff          2           61.328715            112.232133
     angle_coeff          3           49.873049            108.741688

     # Dihedral interactions
     dihedral_coeff       1          opls                  0.105414            -0.205941             0.372587            -0.070860

# SET RUN PARAMETERS
timestep	1.0		# fs
run_style	verlet 		# Velocity-Verlet integrator
neigh_modify every 1 delay 0 check no one 10000 # More relaxed rebuild criteria can be used

#===========================================================
# RUN CONSTRAINED RELAXATION
#===========================================================

# SET OUTPUTS
thermo_style    custom step temp vol density etotal pe ebond eangle edihed ecoul elong evdwl enthalpy press
thermo_modify   format float %20.10f
thermo ${thermo_freq}
thermo 1000

# DECLARE RELEVANT OUTPUT VARIABLES
variable        my_step equal   step
variable        my_temp equal   temp
variable        my_rho  equal   density
variable        my_pe   equal   pe
variable        my_ebon equal   ebond
variable        my_eang equal   eangle
variable        my_edih equal   edihed
variable        my_evdw equal   evdwl
variable        my_eel  equal   (ecoul+elong)
variable        my_ent  equal   enthalpy
variable        my_P    equal   press
variable        my_vol  equal   vol

fix  averages all ave/time ${dump4avg} $(v_avg_freq/v_dump4avg) ${avg_freq} v_my_temp v_my_rho v_my_vol v_my_pe v_my_edih v_my_evdw v_my_eel v_my_ent v_my_P file thermo.avg
fix  averages all ave/time 100 $(v_avg_freq/v_dump4avg) ${avg_freq} v_my_temp v_my_rho v_my_vol v_my_pe v_my_edih v_my_evdw v_my_eel v_my_ent v_my_P file thermo.avg
fix  averages all ave/time 100 10 ${avg_freq} v_my_temp v_my_rho v_my_vol v_my_pe v_my_edih v_my_evdw v_my_eel v_my_ent v_my_P file thermo.avg
fix  averages all ave/time 100 10 1000 v_my_temp v_my_rho v_my_vol v_my_pe v_my_edih v_my_evdw v_my_eel v_my_ent v_my_P file thermo.avg

# INITIALIZE VELOCITIES AND CREATE THE CONSTRAINED RELAXATION FIX
velocity        all create ${ANNEAL_TEMP} ${vseed} mom yes rot yes     # DRAW VELOCITIES
velocity        all create 100.0 ${vseed} mom yes rot yes     
velocity        all create 100.0 47065 mom yes rot yes     

fix relax all nve/limit 0.01
run             10000
PPPM initialization ...
WARNING: Using 12-bit tables for long-range coulomb (../kspace.cpp:321)
  G vector (1/distance) = 0.185806
  grid = 8 8 8
  stencil order = 5
  estimated absolute RMS force accuracy = 0.00754932
  estimated relative force accuracy = 2.27346e-05
  using double precision FFTs
  3d grid and FFT values/proc = 343 8
Neighbor list info ...
  update every 1 steps, delay 0 steps, check no
  max neighbors/atom: 10000, page size: 100000
  master list distance cutoff = 16
  ghost atom cutoff = 16
  binsize = 8, bins = 3 3 3
  1 neighbor lists, perpetual/occasional/extra = 1 0 0
  (1) pair lj/cut/coul/long, perpetual
      attributes: half, newton on
      pair build: half/bin/newton
      stencil: half/bin/3d/newton
      bin: standard
Per MPI rank memory allocation (min/avg/max) = 8.557 | 8.677 | 9.16 Mbytes
Step Temp Volume Density TotEng PotEng E_bond E_angle E_dihed E_coul E_long E_vdwl Enthalpy Press 
       0       100.0000000000     11565.9221903695         0.7682579251      -259.7684950587      -558.1475810637       272.7479019579       307.6458415272        12.0556130525      2318.0254982861     -3091.0902126750      -377.5322232125      -451.1581800177     -1134.6511872539 
    1000        24.0160164318     11565.9221903695         0.7682579251     -1371.1663345155     -1442.8251048396         9.0336192893        17.6260117535       -36.7469471982      2058.1042265160     -3093.6389742607      -397.2030409396     -1749.1810255336     -2241.0550393816 
    2000        19.5410016737     11565.9221903695         0.7682579251     -1411.5907000613     -1469.8969622515         9.2155716361        16.6049527170       -36.1666642041      2043.7892748348     -3093.2364415606      -410.1036556746     -1869.3776689344     -2713.9839216123 
    3000        17.5751572457     11565.9221903695         0.7682579251     -1432.5825318232     -1485.0231253767         9.0516009227        16.4060025075       -38.1949139859      2029.0839012155     -3093.3885133662      -407.9812026703     -1899.9827484693     -2770.9759324480 
    4000        16.2460288543     11565.9221903695         0.7682579251     -1447.7709121447     -1496.2456645523         8.4661077119        17.4618766263       -36.4710215956      2016.2401886383     -3093.0705591573      -408.8722567759     -1795.1231029471     -2059.2728169944 
    5000        14.6320863512     11565.9221903695         0.7682579251     -1457.2549477443     -1500.9140332624         8.8429658155        16.3318877087       -37.8548859515      2025.7167245944     -3093.4173943108      -420.5333311188     -1853.9453174039     -2351.7735504029 
    6000        14.7417557527     11565.9221903695         0.7682579251     -1467.5684933911     -1511.5548094669         8.4929114254        16.0820762267       -37.8809116044      2020.3589116493     -3093.1995375512      -425.4082596129     -1873.1279635887     -2404.3538943089 
    7000        13.6572569216     11565.9221903695         0.7682579251     -1474.5833298668     -1515.3337282428         8.1935364467        16.3091850555       -37.8352595258      2009.9309930210     -3093.4862219164      -418.4459613238     -1773.9783733401     -1774.9595105276 
    8000        13.2586398832     11565.9221903695         0.7682579251     -1480.6746036568     -1520.2356121570         8.4474066965        16.7132494509       -37.7993781125      2016.8631636315     -3093.2912634285      -431.1687903949     -1879.9841689759     -2367.3014168352 
    9000        12.9521595168     11565.9221903695         0.7682579251     -1486.3633402297     -1525.0098754138         8.7573499668        16.6024076276       -36.9467132695      2018.3649858511     -3093.2213431564      -438.5665624334     -1903.2961297530     -2471.7804658018 
   10000        13.0223407783     11565.9221903695         0.7682579251     -1491.8023553496     -1530.6582967402         8.4053591827        16.7261244379       -38.2003763454      2009.1623718889     -3092.6322005709      -434.1195753335     -1816.0996487063     -1922.5921658694 
Loop time of 12.0321 on 64 procs for 10000 steps with 1002 atoms

Performance: 71.808 ns/day, 0.334 hours/ns, 831.107 timesteps/s
98.6% CPU use with 64 MPI tasks x no OpenMP threads

MPI task timing breakdown:
Section |  min time  |  avg time  |  max time  |%varavg| %total
---------------------------------------------------------------
Pair    | 0.56184    | 1.7822     | 3.6219     |  45.7 | 14.81
Bond    | 0.016697   | 0.045899   | 0.076575   |   5.8 |  0.38
Kspace  | 0.91601    | 2.7757     | 4.0344     |  36.8 | 23.07
Neigh   | 4.2166     | 4.3148     | 4.5474     |   4.0 | 35.86
Comm    | 2.7765     | 3.02       | 3.1302     |   5.0 | 25.10
Output  | 0.0013647  | 0.0014295  | 0.0014391  |   0.0 |  0.01
Modify  | 0.0082996  | 0.009531   | 0.010611   |   0.5 |  0.08
Other   |            | 0.08263    |            |       |  0.69

Nlocal:    15.6562 ave 25 max 1 min
Histogram: 2 0 5 2 6 14 8 18 6 3
Nghost:    4613.53 ave 4929 max 4290 min
Histogram: 5 3 3 10 10 9 9 8 3 4
Neighs:    11603.1 ave 23671 max 990 min
Histogram: 3 3 8 7 16 15 4 5 2 1

Total # of neighbors = 742597
Ave neighs/atom = 741.115
Ave special neighs/atom = 5
Neighbor list builds = 10000
Dangerous builds not checked
unfix relax

#===========================================================
# RUN RAMPED ANNEAL
#===========================================================

# REINITIALIZE THE VELOCITIES AND CREATE THE ANNEALING FIX
velocity        all create ${ANNEAL_TEMP} ${vseed} mom yes rot yes     # DRAW VELOCITIES
velocity        all create 100.0 ${vseed} mom yes rot yes     
velocity        all create 100.0 47065 mom yes rot yes     

fix mom all momentum 1000 linear 1 1 1 angular # Zero out system linear and angular momentum every ps
fix anneal all npt temp ${ANNEAL_TEMP} ${FINAL_TEMP} 100.0 iso ${pressure} ${pressure} 1000.0 # NPT, nose-hoover 100 fs T relaxation
fix anneal all npt temp 100.0 ${FINAL_TEMP} 100.0 iso ${pressure} ${pressure} 1000.0 
fix anneal all npt temp 100.0 298.0 100.0 iso ${pressure} ${pressure} 1000.0 
fix anneal all npt temp 100.0 298.0 100.0 iso 1.0 ${pressure} 1000.0 
fix anneal all npt temp 100.0 298.0 100.0 iso 1.0 1.0 1000.0 

# CREATE COORDINATE DUMPS FOR ANNEAL
dump anneal all custom ${coords_freq} anneal.lammpstrj id type x y z mol
dump anneal all custom 1000 anneal.lammpstrj id type x y z mol
dump_modify anneal sort id format float %20.10g

# RUN RAMPED ANNEAL
run ${nSteps_ramp}
run 50000
PPPM initialization ...
WARNING: Using 12-bit tables for long-range coulomb (../kspace.cpp:321)
  G vector (1/distance) = 0.185806
  grid = 8 8 8
  stencil order = 5
  estimated absolute RMS force accuracy = 0.00754932
  estimated relative force accuracy = 2.27346e-05
  using double precision FFTs
  3d grid and FFT values/proc = 343 8
Per MPI rank memory allocation (min/avg/max) = 9.826 | 10.34 | 10.54 Mbytes
Step Temp Volume Density TotEng PotEng E_bond E_angle E_dihed E_coul E_long E_vdwl Enthalpy Press 
   10000       100.0000000000     11565.9221903695         0.7682579251     -1232.2792107352     -1530.6582967402         8.4053591827        16.7261244379       -38.2003763454      2009.1623718889     -3092.6322005709      -434.1195753335     -1383.5610743490      -896.8725048903 
   11000        90.8801175645     10063.2656003164         0.8829749444      -991.3661983888     -1262.5334625380       109.8762884752        99.7510518982       -17.5844719178      2103.9245803019     -3092.6924946220      -465.8084166735     -1487.5406849419     -3380.8009703446 
   12000       109.1074616523      9769.4682462623         0.9095286621      -957.5760060282     -1283.1298528695        89.0907948375       105.8435589944       -12.1413648549      2100.5021181380     -3093.2571109287      -473.1678490559     -1069.3151945338      -784.2575313288 
   13000       110.3027788554      9602.2021928031         0.9253722433      -964.2938977570     -1293.4143211439        85.1734949661       103.4705733265       -16.5975000503      2105.9423617491     -3093.2541851290      -478.1490660062      -845.2343695019       850.1927973585 
   14000       112.3350470769      9499.2796456484         0.9353984423      -932.7206099793     -1267.9048967108        98.1502154047       113.3385354304       -17.2532670940      2116.9893118778     -3092.9240043459      -486.2056879838     -1127.7959967397     -1408.1078328710 
   15000       123.6952381707      9566.4702618513         0.9288286213      -898.8491861159     -1267.9299072012        92.0853804201       112.3083180225       -11.2395032563      2112.2898120941     -3092.7310154449      -480.6428990367      -955.1791353971      -403.7492652484 
   16000       122.4280226315      9642.8674770701         0.9214698226      -880.8854078632     -1246.1850228049       106.2051818425       113.8826982285        -5.9784100079      2105.0183263324     -3093.2641576869      -472.0486615135      -783.1822705239       694.7465869264 
   17000       128.6861671716      9677.4433263880         0.9181775686      -852.5520250324     -1236.5246344539       100.5942968326       123.2003226309       -10.5794823533      2110.6807444618     -3091.8578907511      -468.5626252748      -820.8565964806       224.5743245653 
   18000       130.2994969488      9544.1757845223         0.9309982951      -852.8273657641     -1241.6138138291       106.1598941286       117.7108640929       -11.2346645971      2129.1229390210     -3092.7078952210      -490.6649512535      -664.7686548667      1351.0739978295 
   19000       142.8910133794      9738.1446794224         0.9124542381      -788.9160004400     -1215.2729001449       112.3474909067       127.3641237047        -6.8689983191      2129.0042450677     -3093.2416912833      -483.8780702216      -706.8397825396       577.9166726204 
   20000       134.9018048414      9660.0712039915         0.9198287669      -818.2272071908     -1220.7459794807       111.8950582329       132.4398069340       -14.3086801544      2109.0471295070     -3092.9749110324      -466.8443829678     -1054.2041453338     -1674.9943435545 
   21000       140.4137472439      9681.8807600136         0.9177567462      -766.7454837567     -1185.7107394084       124.2620825681       136.9579905665        -3.8881133196      2112.5609359704     -3092.9828061017      -462.6208290921      -771.5971030413       -34.3598369752 
   22000       133.7725637800      9670.8269677891         0.9188057457      -787.3157422018     -1186.4650953340       116.9931834540       146.1325143125        -0.4974071951      2129.6899553781     -3093.1887576234      -485.5945836601      -991.5967874727     -1448.4001766782 
   23000       149.4109668322      9680.1220006286         0.9179234914      -708.1179325473     -1153.9290097725       134.7111719310       150.4047751470        -9.8859158845      2133.1286794744     -3092.7191434406      -469.5685769998      -696.5233609406        82.1292745713 
   24000       159.8429250992      9750.3391850848         0.9113130543      -671.8174916207     -1148.7553505753       128.5531031679       157.3973427888        -3.0753722112      2138.3561293371     -3092.8636603828      -477.1228932751      -873.9575932532     -1421.5327399153 
   25000       160.8575968013      9808.9009037145         0.9058722757      -629.7542050297     -1109.7196321350       140.5265720028       160.6355483863        -0.0687801231      2149.7795774301     -3092.6761214656      -467.9164283655      -443.1886819038      1304.1728466792 
   26000       164.6408689546      9765.6316147713         0.9098859894      -635.4647335811     -1126.7186535584       144.2511625689       162.1960706079        -7.3567063719      2132.2533656937     -3093.0599152900      -465.0026307671      -707.8589370860      -508.3087285423 
   27000       155.4053676662      9920.2804373334         0.8957016326      -639.5413604682     -1103.2384761133       145.6809421367       169.3338707865        -5.3785289191      2165.1442710260     -3092.1216442093      -485.8973869339      -847.6257612233     -1438.2675606939 
   28000       172.3688972954      9946.0025263594         0.8933851927      -567.3585914782     -1081.6713317851       133.9887016598       179.6512057299        -4.4320226669      2151.6833464000     -3091.8985259188      -450.6640369891      -275.1484942955      2014.5161996202 
   29000       171.0327396998      9788.8744154220         0.9077255470      -543.8484111885     -1054.1743366742       158.1349414032       183.9788552078        -3.9512655698      2156.8800630911     -3092.8267259775      -456.3902048289      -415.2694864491       900.6605558135 
   30000       188.4876345909      9773.3214643971         0.9091700724      -504.1746051199     -1066.5822864447       155.7109993838       177.8283019930        -2.4727261467      2163.5352619767     -3092.4580660549      -468.7260575966      -316.8932656949      1313.9427215434 
   31000       180.1199546350     10045.6016160759         0.8845275498      -474.9840485234     -1012.4243228760       170.6726579591       196.6978169188         6.9400699805      2177.9260317750     -3092.4423050517      -472.2185944577      -687.3906397879     -1449.8268849575 
   32000       188.1939623902      9928.1016337558         0.8949960135      -466.2838549778     -1027.8152798742       170.1608854707       182.8793255491         5.7569663960      2161.0017910499     -3093.0934417966      -454.5208065434      -653.0153961099     -1289.6610327195 
   33000       189.2825829560     10200.9806283837         0.8710546277      -431.7099198011      -996.4895607921       166.7247271984       195.5034260819        -1.6682321080      2173.8650565737     -3093.3541773569      -437.5603611811      -568.6984655147      -920.8024007611 
   34000       192.0886820452     10340.0060410128         0.8593429586      -401.1353850126      -974.2878388181       176.5957812563       209.4116072302         3.3506649280      2162.9379980621     -3092.4343023100      -434.1495879847      -587.8070209113     -1237.8888511539 
   35000       193.0465477127      9918.6525606214         0.8958486376      -443.0263546105     -1019.0368792398       171.7912579736       192.5656500310        -4.9862062845      2166.4161258588     -3093.1803178877      -451.6433889310      -124.2907472589      2203.4439926787 
   36000       202.9825192069     10240.1293709793         0.8677245239      -347.8348213565      -953.4922069159       178.2017302065       223.7826799062         3.9840294167      2173.4187059733     -3092.2296055332      -440.6497468853      -473.2950847520      -840.0881565905 
   37000       209.5026671551     10138.4816528841         0.8764242702      -323.7353768312      -948.8475202448       192.1793462290       213.7178114056        -4.3716892052      2191.0928642971     -3092.2350642044      -449.2307887670      -674.8400137219     -2374.5851967779 
   38000       214.9273038779     10138.1194472321         0.8764555823      -301.0025844683      -942.3007093543       184.0283310562       215.3141638394         5.5049881249      2187.2189721253     -3093.0741652169      -441.2929992832      -223.6643798725       523.0711805753 
   39000       212.7572748349     10097.8314542087         0.8799524357      -276.6322696468      -911.4554817083       197.9367989689       232.5266809420        -4.0149597607      2198.4035761165     -3092.8662528867      -443.4413250882      -504.3843436301     -1546.5299452473 
   40000       210.5193180796     10215.5832596417         0.8698095016      -267.2700814419      -895.4156985916       222.3415609803       215.0659525248         5.2479006453      2200.1581047405     -3092.1247066780      -446.1045108046      -215.7935991065       345.5173056501 
   41000       216.0058474730     10242.6088369812         0.8675144707      -239.1821815784      -883.6984549857       194.7335552898       233.0681485454         5.6094628221      2209.0584193877     -3092.7065992563      -433.4614417744      -165.2458433598       494.9615477114 
   42000       223.4572152254     10128.6976101788         0.8772708719      -201.7067370269      -868.4563334285       218.2325336725       234.1961554332        10.9407078033      2203.1955568810     -3092.5865729296      -442.4347142889        -6.2641629354      1323.0908893462 
   43000       232.1265930921     10342.9063353753         0.8591019870      -144.9483234219      -837.5655302647       227.2716275464       240.5674472529         3.5479138961      2218.2491661071     -3091.7699505277      -435.4317345395       -54.6539467473       598.6075955089 
   44000       236.3482958037     10199.0034778375         0.8712234880      -154.0973288057      -859.3112136131       198.0566572532       248.1267688340         9.6967459825      2217.9569070521     -3092.1487873517      -440.9995053832      -111.3934216640       287.1005224551 
   45000       241.9899066092     10348.9199723903         0.8586027728      -106.1279507529      -828.1752223177       208.0441708822       273.1747802293         3.7079600249      2219.7224574106     -3092.6908514788      -440.1337393860        68.4049576775      1156.3955396636 
   46000       241.3043320911     10249.3263606140         0.8669458919      -141.9245668326      -861.9262274166       214.4072718463       244.2945232054         0.4125324704      2205.9178263594     -3091.3468108030      -435.6115704951      -241.1891557771      -664.0841836887 
   47000       264.5277334745     10322.8928329927         0.8607675704       -35.3655276167      -824.6609609878       218.9315354146       271.7295252920         9.5017014593      2197.8389131131     -3093.3682627394      -429.2943735274       271.2487197508      2036.6435357358 
   48000       250.3744928461     10284.1819621460         0.8640076008       -40.0117859351      -787.0769092789       245.9773254570       267.4855930409         7.2996322557      2217.6270565542     -3092.1614497416      -433.3050668451       -13.1443558999       179.1350152513 
   49000       255.1917942925     10412.5263794810         0.8533578749        16.9542910267      -744.4846523430       258.4701233361       289.0799986356        17.3642525124      2204.2359985213     -3091.4436188416      -422.1914065067      -194.3866465426     -1391.7192221765 
   50000       258.3766385403     10386.6876798889         0.8554807517       -51.8755792178      -822.8174317449       231.7836544829       247.5646538185         0.4781094803      2216.9498162044     -3092.6068493707      -426.9868163603      -200.5241937746      -981.3137937941 
   51000       257.4980529652     10338.3225839401         0.8594828911         9.3226872874      -758.9976496309       235.2127398908       284.2452655819         3.1207938323      2213.3052521488     -3092.0904870620      -402.7912140228       314.1860801752      2021.9914277309 
   52000       263.6499518779     10491.9542752669         0.8468976466        59.4782287342      -727.1980879317       250.6698789502       283.1249519403        13.4648396714      2250.0356056097     -3090.9053344554      -433.5880296480       379.2955485596      2090.1126839322 
   53000       273.4011877023     10625.0060494049         0.8362923600       104.6979899690      -711.0739750240       249.0223964217       303.6927443421         0.9733840265      2248.2928804533     -3092.4893930358      -420.5659872318       395.3891098941      1875.9734587591 
   54000       292.4525559172     10555.8688241821         0.8417697805       131.9974749326      -740.6197884115       231.8464184097       280.5469620247        16.4994495290      2261.3230099091     -3092.2558790283      -438.5797492558       170.1663166284       247.9357238194 
   55000       275.3959742043     10516.7096083748         0.8449041301       112.4459218746      -709.2780688507       247.0322036392       293.6979593401         9.9897077894      2261.8126289186     -3092.3312399149      -429.4793286230       306.7724297981      1266.9990079587 
   56000       282.3836058506     10628.4407818027         0.8360221001       166.3338706509      -676.2397515141       269.4031462878       293.0039343456         3.4383675697      2268.1062131937     -3091.7470162941      -418.4443966168      -102.4625772379     -1734.1157341654 
   57000       287.7300403141     11005.9005226331         0.8073497816       181.5186362796      -677.0076281715       262.5436599370       305.0943250028        10.3430700748      2235.0624793359     -3091.0597014371      -398.9914610850       586.5632828740      2523.4890469979 
   58000       289.6365183523     10979.0577298245         0.8093236781       236.8114284299      -627.4033677664       276.3350715505       303.3966788167         9.0334738532      2282.6434477298     -3092.1186438619      -406.6933958548       -59.2400510876     -1848.9547289451 
   59000       289.9948070353     11146.7180217962         0.7971504587       276.6877773217      -588.5960773722       290.5849987732       328.2081543504         4.4641490207      2279.0019550140     -3091.2037222795      -399.6516122510       307.9554357586       192.3412591570 
   60000       290.5009853693     11202.4780776763         0.7931826621       319.3444683356      -547.4497166449       299.2667070557       314.1669851920         9.9468254399      2315.6092238161     -3091.2449781961      -395.1944799526       341.6312050267       136.4132292726 
Loop time of 63.7489 on 64 procs for 50000 steps with 1002 atoms

Performance: 67.766 ns/day, 0.354 hours/ns, 784.328 timesteps/s
99.0% CPU use with 64 MPI tasks x no OpenMP threads

MPI task timing breakdown:
Section |  min time  |  avg time  |  max time  |%varavg| %total
---------------------------------------------------------------
Pair    | 7.2986     | 11.067     | 14.627     |  63.8 | 17.36
Bond    | 0.21914    | 0.26589    | 0.31053    |   3.6 |  0.42
Kspace  | 8.0881     | 11.706     | 15.485     |  62.5 | 18.36
Neigh   | 21.411     | 21.878     | 23.27      |  10.7 | 34.32
Comm    | 15.43      | 16.878     | 17.339     |  11.9 | 26.48
Output  | 0.02866    | 0.028702   | 0.029216   |   0.0 |  0.05
Modify  | 1.1768     | 1.2571     | 1.348      |   4.1 |  1.97
Other   |            | 0.6678     |            |       |  1.05

Nlocal:    15.6562 ave 22 max 10 min
Histogram: 5 2 7 9 9 16 6 5 3 2
Nghost:    4740.41 ave 4844 max 4641 min
Histogram: 5 7 2 3 12 16 8 6 3 2
Neighs:    12009.8 ave 18985 max 5025 min
Histogram: 2 10 4 10 6 8 8 7 4 5

Total # of neighbors = 768629
Ave neighs/atom = 767.095
Ave special neighs/atom = 5
Neighbor list builds = 50000
Dangerous builds not checked
unfix anneal

# RUN EQUILIBRATION PHASE AT FINAL TEMP
fix anneal all npt temp ${FINAL_TEMP} ${FINAL_TEMP} 100.0 iso ${pressure} ${pressure} 1000.0 # NPT, nose-hoover 100 fs T relaxation
fix anneal all npt temp 298.0 ${FINAL_TEMP} 100.0 iso ${pressure} ${pressure} 1000.0 
fix anneal all npt temp 298.0 298.0 100.0 iso ${pressure} ${pressure} 1000.0 
fix anneal all npt temp 298.0 298.0 100.0 iso 1.0 ${pressure} 1000.0 
fix anneal all npt temp 298.0 298.0 100.0 iso 1.0 1.0 1000.0 
run ${nSteps_ramp}
run 50000
PPPM initialization ...
WARNING: Using 12-bit tables for long-range coulomb (../kspace.cpp:321)
  G vector (1/distance) = 0.186459
  grid = 8 8 8
  stencil order = 5
  estimated absolute RMS force accuracy = 0.00731382
  estimated relative force accuracy = 2.20254e-05
  using double precision FFTs
  3d grid and FFT values/proc = 343 8
Per MPI rank memory allocation (min/avg/max) = 10.43 | 10.54 | 10.55 Mbytes
Step Temp Volume Density TotEng PotEng E_bond E_angle E_dihed E_coul E_long E_vdwl Enthalpy Press 
   60000       290.5009853693     11202.4780776763         0.7931826621       319.3403852099      -547.4537997705       299.2667070557       314.1669851920         9.9468254399      2326.4392364025     -3102.0790739081      -395.1944799526       341.6119198137       136.3201799466 
   61000       291.2514880411     11343.6791823607         0.7833094749       298.1874688641      -570.8460591289       288.6926309687       328.2474826464         8.7240661133      2303.7982119715     -3101.8571208287      -398.4513300000       345.6243330203       286.7385911989 
   62000       288.8033614189     10952.2799857713         0.8113024316       268.1200017740      -593.6088283793       274.6443366828       311.6251608561        10.5165544839      2315.3459701978     -3103.0885603184      -402.6522902816       262.9837966844       -32.1559933245 
   63000       304.8247260328     10893.9020582813         0.8156500156       297.4935497967      -612.0396816573       256.3082201304       327.6131303085         8.7996591266      2307.8919497745     -3102.8970450333      -409.7555959640       355.6513091410       366.0566578303 
   64000       312.2458910043     11072.2174253766         0.8025141706       321.2086009703      -610.4678346966       269.3129637172       319.7814002909         9.9484947714      2302.8270759996     -3102.7216537852      -409.6161156904        84.5281067963     -1465.7232353235 
   65000       299.5270498245     10884.4806115825         0.8163560303       297.7861685812      -595.9399050230       268.9970733559       307.0512829358        15.3635709305      2340.3590429439     -3102.4715344132      -425.2393407758       413.1010820113       726.4435595896 
   66000       293.4622407353     11253.1111577140         0.7896137574       279.6762110616      -595.9537406143       264.6956894316       309.9603733343         8.9847448323      2314.7506836583     -3101.9226945469      -392.4225373241       101.5683426875     -1085.2620277429 
   67000       285.6280485247     11444.5295074610         0.7764068744       283.6378328933      -568.6165276688       287.4930162835       314.0359008640        12.6706253544      2316.3841266250     -3101.0397188460      -398.1604779497        72.9281413738     -1262.4398026334 
   68000       297.1284284462     11231.9040346094         0.7911046387       345.7005465839      -540.8685424750       290.6717525150       344.3479903582        13.2817427641      2302.0912015661     -3101.4157596450      -389.8454700333       363.5077233388       108.7090738973 
   69000       301.3280430681     11119.5240062731         0.7990999775       312.6687330518      -586.4311277314       283.6405753218       309.6960878711         9.1258654003      2303.6698432679     -3101.7311326277      -390.8323669648       732.3010826725      2587.6579860781 
   70000       286.0487674514     11089.9073041347         0.8012340536       280.0075277593      -573.5021700906       270.6940577171       312.0016860322        15.6856154556      2313.4186922106     -3102.9950114966      -382.3072100094       319.4171762315       243.6681441362 
   71000       285.1698271242     11419.5428624083         0.7781056992       258.9054161749      -591.9817075602       265.4699584720       324.1425446059        13.4908575177      2292.3283818141     -3102.9791831399      -384.4342668300      -121.5350220192     -2284.3469448107 
   72000       307.1949838369     11364.4297141346         0.7818792150       342.4396136558      -574.1659713700       282.2523336520       311.8687029900         8.1756728185      2330.0703148371     -3102.4263383569      -404.1066573107       302.2368521982      -242.5673527938 
   73000       290.8817145857     11301.9123623333         0.7862042368       298.1803951996      -569.7498061368       276.1410910253       307.7809913626        14.0424711319      2335.9426560743     -3102.4606999950      -401.1963157359       289.0349555846       -55.4851496609 
   74000       306.6602252732     11064.8977693442         0.8030450501       332.0755374535      -582.9344398575       289.8472189539       304.2013551292         8.5719266024      2325.8428590636     -3101.5602616436      -409.8375379631       214.9630613477      -725.7380077698 
   75000       284.1340192711     11417.3469326904         0.7782553544       266.6016233302      -581.1948664003       277.3326774260       311.3977198603        14.5414131111      2333.7924968819     -3101.1486917287      -417.1104819509        37.9131604744     -1373.4193696006 
   76000       291.5273188782     11005.6023524493         0.8073716548       269.4067971811      -600.4497523425       271.5878835043       327.9413974482         7.4009947350      2298.3266724832     -3102.8378006351      -402.8688998781      -187.3527953276     -2845.7580322619 
   77000       290.1984980938     10832.1072367633         0.8203031219       274.4819287606      -591.4096974519       272.7400485284       313.1285358286         8.9067385877      2317.7905952287     -3102.5577708100      -401.4178448152       184.0518891667      -572.4319698661 
   78000       295.4715077275     11451.8945560176         0.7759075444       308.2071806932      -573.4180034692       286.0119780395       324.7169286540         8.8382953073      2296.7748350672     -3102.1676695890      -387.5923709483        81.7764354522     -1355.7579693474 
   79000       312.0600554284     10884.9696997700         0.8163193494       311.1750717288      -619.9468694452       273.1506603900       313.6979877830        11.4302287379      2288.7929942988     -3100.9815958516      -406.0371448033       247.1022768388      -403.6180266376 
   80000       303.0877660103     10940.4045444875         0.8121830731       290.4642250010      -613.8862810135       263.6794466582       309.2754902139         7.9183394722      2308.1631169866     -3102.5523658425      -400.3703085020       701.6094304752      2576.8311363240 
   81000       301.8612582971     10794.9359124250         0.8231277569       280.9198226158      -619.7710408942       261.4753029151       306.6990543013        11.0778301619      2319.3837266951     -3101.5839863752      -416.8229685923       589.2677886750      1958.5972045295 
   82000       292.1794428197     11385.5758408292         0.7804270515       325.6504608758      -546.1518901041       283.8329501569       315.6806052886        14.8144830355      2342.6347737523     -3101.4671422150      -401.6475601223       338.2541662940        75.9044703348 
   83000       299.0463588152     10992.6826063496         0.8083205621       317.0567294406      -575.2350627235       282.8427593792       339.4043060476        13.8431448085      2306.8442981342     -3101.7781765929      -416.3913945002       205.2622026551      -697.3341978355 
   84000       282.7800467015     10870.0983448979         0.8174361539       218.3226946357      -625.4338241167       272.0516678851       305.5750130224        12.5059815137      2297.1260914531     -3101.3413619134      -411.3512160776       211.4973637510       -43.0540833910 
   85000       312.4859897184     11056.6297094406         0.8036455608       326.7409337732      -605.6519062421       271.1153529258       309.6352383849        10.2622806752      2312.8800297063     -3102.9611439054      -406.5836640290       496.6923181812      1053.9646675477 
   86000       303.9630730961     11121.6240206072         0.7989490894       303.6386800396      -603.3235592571       277.5359352819       304.2056375373         5.9212844187      2317.9033915971     -3101.8352657296      -407.0545423625       362.1872520875       360.9709138160 
   87000       307.8101323195     11126.8433563875         0.7985743215       369.0819298344      -549.3591296115       286.9500991033       336.7200031370         6.5217647742      2332.7280158729     -3101.2748832238      -411.0041292750       475.9598707636       658.6280379125 
   88000       307.9307754670     10962.5743522657         0.8105405809       300.2593520529      -618.5416813136       279.7494435499       287.2687663547        13.4842500756      2296.3483381127     -3101.8068733966      -393.5856060099       406.8126714951       666.4668345559 
   89000       293.1488532563     11572.0482885721         0.7678512189       309.7518013677      -564.9430676126       268.1630563357       331.5352496921        12.9918385402      2296.0001439678     -3101.3902439127      -372.2431122356       378.2750712355       406.0242308264 
   90000       303.6543613955     11190.0253528002         0.7940653487       337.5983624191      -568.4427457270       274.7752593353       313.6371517676        10.4923931946      2318.2957177451     -3102.0807174868      -383.5625502828       471.1736892038       818.5011339981 
   91000       292.1471826322     10969.1767436156         0.8100527133       264.9333712726      -606.7727220546       236.3817784706       338.5230485201         9.1453071938      2326.9540066734     -3102.4790406720      -415.2978222405       361.0917711370       601.0869568197 
   92000       298.2998994664     11280.2220317269         0.7877160005       290.9371126541      -599.1274009276       263.4375693596       305.0605007854         8.6826021325      2341.8172785358     -3101.4883916283      -416.6369601126       258.6139566237      -196.4808467922 
   93000       285.5470178479     10610.1129798524         0.8374662363       230.3899685097      -621.6226134594       263.1367251603       311.6880915280        12.8783403185      2283.1769783056     -3101.8840778724      -390.6186708994       336.1251535943       683.3192129768 
   94000       284.0729550235     11426.8557338716         0.7776077331       281.8754855642      -565.7388012225       251.5515378318       339.0014053078        15.3030198450      2319.3246306050     -3101.7815575996      -389.1378372124       395.1578579413       679.7664118851 
   95000       307.2927163250     11354.0419603900         0.7825945522       393.4668901140      -523.4303082165       286.6449674223       313.6131894201        13.2407892347      2375.9827702393     -3102.8059828167      -410.1060417161       504.6355159839       671.3606044633 
   96000       297.6607165945     11671.9569618649         0.7612786281       368.5110400505      -519.6462855201       268.1508969838       343.6727662681        12.4141363278      2332.9938565571     -3101.5918397896      -375.2861018674       558.7738018936      1117.7231081065 
   97000       292.5309264045     11514.3205678002         0.7717008860       328.8725281403      -543.9785763473       272.8453502378       320.7195249137        19.8149005962      2327.5183992011     -3099.9361079961      -384.9406433001       329.6252132244         4.4822812519 
   98000       290.0298708227     11861.6875701082         0.7491017894       338.5652551418      -526.8232225603       275.3813122451       319.5494119416        11.1599321136      2326.3793291403     -3102.9233433929      -356.3698646080        66.2201013871     -1574.3354742333 
   99000       293.9545502567     12171.3688419154         0.7300420765       358.2209203216      -518.8779800045       282.4963637415       319.8360731933         4.2504472661      2359.9373565065     -3101.7112631135      -383.6869575984       567.8374870866      1180.8922995839 
  100000       293.0086220645     11547.7557205554         0.7694665179       318.2752323682      -556.0012160636       272.9565399501       325.3370288353         9.1678250490      2303.0206927132     -3103.1181918239      -363.3651107874       723.5228655745      2406.2846984191 
  101000       301.2858941158     11638.1796820883         0.7634880734       313.5060635603      -585.4680335646       272.6372288368       300.5642493012        12.0888422026      2300.1297160103     -3101.7884183520      -369.0996515635       829.2797527934      3038.7728438195 
  102000       308.5450364254     11729.2156196550         0.7575622848       392.3005171333      -528.3333424665       273.5623902391       338.0362050663        13.7179763842      2349.3323730711     -3102.4580113813      -400.5242758459      -288.3539332770     -3979.0722875894 
  103000       305.4827486740     11165.9858638920         0.7957749089       309.7954320320      -601.7012013644       287.9958097255       306.1791995402         1.9994799315      2302.7150087028     -3099.8409874311      -400.7497118334       -67.1290425660     -2314.6289197330 
  104000       291.0445179079     11368.5349354845         0.7815968754       294.9652603534      -573.4507120478       281.9061095936       314.0324761095        15.3455013795      2305.7749984225     -3101.9689996932      -388.5407978597        47.8141280790     -1490.6724130840 
  105000       307.1409094194     11227.1422311393         0.7914401725       324.0329688887      -592.4112693844       269.6863778587       324.8747777457        11.8423864531      2305.4822543152     -3102.4782977282      -401.8187680288       587.6878808970      1610.2405270353 
  106000       305.7215512512     11367.8471503624         0.7816441641       363.1251410252      -549.0840293184       286.1915899069       330.5710814745         8.9737419325      2318.0451128844     -3101.8039644074      -391.0615911094       403.8399411254       245.5829387029 
  107000       291.0852414862     11227.7714076991         0.7913958221       267.6082543998      -600.9292286423       279.6743521912       294.6785322614        16.7676133153      2303.0116637408     -3102.0469114260      -393.0144787250      -183.9636390776     -2757.7662449612 
  108000       296.4668073742     11507.4481697478         0.7721617558       295.9901158143      -588.6048343369       281.2979646236       299.6021194035        13.0085329483      2309.9949897032     -3102.5501767044      -389.9582643110         0.5288168411     -1760.5391452204 
  109000       315.3464999229     11192.5298889090         0.7938876618       335.8294980123      -605.0985062063       266.3209541569       321.0967240770        15.1006296006      2298.2908766164     -3102.0249415141      -403.8827491431       535.5687411700      1223.6557286473 
  110000       285.3524129256     11297.0336606332         0.7865437645       272.3849593308      -579.0469622498       301.0761440228       306.1655737888        10.5617902800      2305.5726678642     -3101.2138650728      -401.2092731328      -117.5648926905     -2366.8375332688 
Loop time of 59.1941 on 64 procs for 50000 steps with 1002 atoms

Performance: 72.980 ns/day, 0.329 hours/ns, 844.679 timesteps/s
99.1% CPU use with 64 MPI tasks x no OpenMP threads

MPI task timing breakdown:
Section |  min time  |  avg time  |  max time  |%varavg| %total
---------------------------------------------------------------
Pair    | 6.6662     | 10.045     | 13.471     |  62.2 | 16.97
Bond    | 0.23491    | 0.26511    | 0.29175    |   2.1 |  0.45
Kspace  | 8.1912     | 11.613     | 15.092     |  57.9 | 19.62
Neigh   | 20.187     | 20.535     | 21.632     |   8.3 | 34.69
Comm    | 13.838     | 15.028     | 15.471     |   9.5 | 25.39
Output  | 0.025897   | 0.025942   | 0.026404   |   0.0 |  0.04
Modify  | 1.0835     | 1.2055     | 1.3398     |   6.9 |  2.04
Other   |            | 0.4773     |            |       |  0.81

Nlocal:    15.6562 ave 22 max 9 min
Histogram: 4 2 3 11 9 7 19 4 2 3
Nghost:    4682.2 ave 4809 max 4600 min
Histogram: 6 9 7 11 12 8 6 1 3 1
Neighs:    11904.2 ave 19739 max 5476 min
Histogram: 5 8 9 6 8 12 4 4 4 4

Total # of neighbors = 761867
Ave neighs/atom = 760.346
Ave special neighs/atom = 5
Neighbor list builds = 50000
Dangerous builds not checked
unfix anneal
undump anneal

# RETURN TO LESS FREQUENT NEIGHBOR BUILDS
neigh_modify every 1 delay 10 check yes one 10000 # More relaxed rebuild criteria can be used

#===========================================================
# RUN EQUILIBRIUM SIM
#===========================================================

# UPDATE RUN PARAMETERS AND CREATE FIX
fix equil all npt temp ${FINAL_TEMP} ${FINAL_TEMP} 100.0 iso ${pressure} ${pressure} 1000.0 # NPT, nose-hoover 100 fs T relaxation
fix equil all npt temp 298.0 ${FINAL_TEMP} 100.0 iso ${pressure} ${pressure} 1000.0 
fix equil all npt temp 298.0 298.0 100.0 iso ${pressure} ${pressure} 1000.0 
fix equil all npt temp 298.0 298.0 100.0 iso 1.0 ${pressure} 1000.0 
fix equil all npt temp 298.0 298.0 100.0 iso 1.0 1.0 1000.0 

# CREATE COORDINATE DUMPS FOR EQUILIBRIUM
dump equil all custom ${coords_freq} equil.lammpstrj id type x y z mol
dump equil all custom 1000 equil.lammpstrj id type x y z mol
dump_modify equil sort id format float %20.10g

# RUN EQUIL
run		${nSteps_equil}
run		100000
PPPM initialization ...
WARNING: Using 12-bit tables for long-range coulomb (../kspace.cpp:321)
  G vector (1/distance) = 0.186287
  grid = 8 8 8
  stencil order = 5
  estimated absolute RMS force accuracy = 0.00737512
  estimated relative force accuracy = 2.221e-05
  using double precision FFTs
  3d grid and FFT values/proc = 343 8
Per MPI rank memory allocation (min/avg/max) = 11.04 | 11.04 | 11.05 Mbytes
Step Temp Volume Density TotEng PotEng E_bond E_angle E_dihed E_coul E_long E_vdwl Enthalpy Press 
  110000       285.3524129256     11297.0336606332         0.7865437645       272.3853143887      -579.0466071919       301.0761440228       306.1655737888        10.5617902800      2302.7264485916     -3098.3672907424      -401.2092731328      -117.5630563820     -2366.8285426778 
  111000       302.8377871389     10870.9972622347         0.8173685605       260.4854239779      -643.1191973649       268.4104714865       308.3732426778        -1.7335201450      2313.5423811568     -3098.5418440518      -433.1699284891       897.9529766565      4020.8031192267 
  112000       287.9297125384     11195.4807215245         0.7936784141       315.1294668961      -543.9925777129       288.4516958546       340.8879509677        13.3459976241      2306.8072700184     -3098.7159035291      -394.7695886487       226.7518532105      -541.2820621677 
  113000       296.5943880415     11084.7578176581         0.8016062714       329.9209712264      -555.0546529538       280.2375775294       321.6582052934        17.0201265192      2332.8021739605     -3099.6745884956      -407.0981477605       268.3469249473      -380.8865135305 
  114000       311.4777199339     10775.4976492078         0.8246126233       306.6281776616      -622.7561961865       282.5489131815       298.9719509887         5.1769205223      2293.4327155299     -3098.6516352577      -404.2350611513       499.9784742744      1230.3583379744 
  115000       299.3650968381     11087.9380854948         0.8013763529       330.5687923398      -562.6740474236       290.6192138724       329.1193547032        15.0952539688      2300.9736579151     -3099.6382930248      -398.8432348584        36.9852603127     -1815.5366043698 
  116000       304.2145645805     11164.8380114180         0.7958567222       352.0498144270      -555.6628228623       276.3425360493       333.4314713045         8.3939313029      2342.2101237055     -3099.3907316170      -416.6501536075       698.7800489063      2129.4301436803 
  117000       299.1352246307     10835.8519897348         0.8200196341       311.6174409806      -580.9395081914       288.0054919076       333.6677085464         6.8391748213      2299.0226492576     -3099.4376165830      -409.0369161412        59.8743238298     -1593.0105492895 
  118000       312.0511041804     10731.4560498415         0.8279968107       268.6831943169      -662.4120382049       274.0517681123       299.5732098668        14.0501236855      2259.4735101525     -3099.0950159787      -410.4656340434       624.8408772696      2275.6620999720 
  119000       305.1415739899     11223.7075471670         0.7916823693       336.2392323814      -574.2394071109       283.3777227405       337.4260701681         5.4841673139      2282.7139377159     -3099.6553011129      -383.5860039363       189.8211277771      -894.5045403074 
  120000       299.5580537666     10919.8559342621         0.8137114113       322.4050246178      -571.4135582654       279.4020998249       330.3662945150         8.3510992437      2306.8655552830     -3098.4964173560      -397.9021897759       437.5810067154       723.2178323639 
  121000       287.7267491349     11131.6656022032         0.7982283785       264.7468813960      -593.7695628645       255.1390665907       336.9610732846        10.3261542549      2315.3550402309     -3100.1142317010      -411.4366655246       401.5118200131       842.4395237576 
  122000       305.4147432641     11067.5049117130         0.8028558789       303.2838215945      -608.0098978814       270.7268623707       318.8035462175         5.7779923435      2289.4888703336     -3099.0596689889      -393.7475001578       475.7822458269      1068.7091294709 
  123000       292.6322570629     11153.2841049978         0.7966811658       286.5989137712      -586.5545402089       271.1597303087       334.2149070378        11.3370296420      2304.0543197513     -3100.1140806249      -407.2064463238       130.2949960388      -960.9287987562 
  124000       289.4855864211     11355.2335070308         0.7825124317       245.2613932101      -618.5030536693       284.1436498718       298.1948633162         8.6661010035      2273.7646777734     -3100.4651547890      -382.8071908453       208.0777415462      -224.5329483470 
  125000       286.0565450795     11456.3684005025         0.7756045435       310.1479181783      -543.3849864873       276.3632989570       360.8992089949        18.7963232669      2301.2835597605     -3099.2428428093      -401.4845346572       146.1938745518      -981.2942907643 
  126000       298.0222382865     10731.0517222399         0.8280280082       273.6177244220      -615.6183062690       274.2586094479       329.7382642558        11.5089533799      2274.5237201916     -3100.4916531356      -405.1562004086       503.5870813886      1469.4397822251 
  127000       309.1923881583     11185.6256214057         0.7943776847       311.9250526359      -610.6403691480       262.4378170236       326.9777550703        10.2860005531      2289.3232904413     -3099.6911090307      -399.9741232056       251.0375400900      -373.2433365708 
  128000       305.2481403999     11020.0780143650         0.8063111143       334.4778145169      -576.3187968555       280.7015355831       322.3289219765        11.7749778552      2311.8784525676     -3099.6003486154      -403.4023362225       410.9201646040       475.6346350281 
  129000       292.3135152671     11176.4431002672         0.7950303423       332.2401983740      -539.9621967489       274.5090336185       340.0235915317        11.3872732027      2350.0077460382     -3099.3343091940      -416.5555319460       122.0032228773     -1289.8214624167 
  130000       293.7843126109     11329.4423471366         0.7842937994       290.8335756880      -585.7573711066       273.6347682670       321.0332148317         7.0389778531      2314.7421616083     -3099.4576048929      -402.7488887739       193.5610619017      -588.7158334035 
  131000       307.5267559942     11132.1911947293         0.7981906911       371.4467469672      -546.1487767891       299.1184310431       326.4880539159         8.6870722115      2321.0293052295     -3097.9471079904      -403.5245311986       242.6358162645      -793.4072635351 
  132000       301.3282874479     11022.5869161351         0.8061275861       299.2113852616      -599.8892047000       282.0942966882       318.3965092284         6.8382864713      2316.9731811329     -3099.5625854966      -424.6288927243       136.8418870240     -1010.0550100634 
  133000       295.9531068034     10993.4937074670         0.8082609241       306.8019000041      -576.2602750793       276.2008378752       330.3730555446        13.1022187087      2292.6163268224     -3099.4665730990      -389.0861409313       315.9715728809        57.1929135504 
  134000       310.2411689391     11097.4014417968         0.8006929758       360.4730033864      -565.2217609052       272.3482213309       335.4258802621         8.8825312345      2324.1115818730     -3099.5256300929      -406.4643455128        54.8745895114     -1888.2257234567 
  135000       294.1969565618     11139.7519672045         0.7976489431       315.3527443488      -562.4694456947       252.3232164249       330.5280522720        13.9465798364      2338.9305292536     -3098.9923491767      -399.2054743049       500.0544567955      1136.8927878767 
  136000       304.7412340201     11382.9492933050         0.7806071304       374.9857697377      -534.2983390117       278.2427673673       322.8996993627        13.7322288729      2345.8008494437     -3099.4633008731      -395.5105831851       228.1762762493      -884.3485125053 
  137000       298.9486320849     11357.0797994267         0.7823852205       325.2429164985      -566.7572795409       260.1891811287       316.8678769812        12.1026414675      2345.1377542737     -3099.1927144582      -401.8620189337       350.0966817715       150.0547078690 
  138000       286.7226951094     11376.0736049699         0.7810789286       275.8991419114      -579.6214151250       262.4698396869       306.3839296284        12.0863908734      2335.4954061149     -3099.7171149487      -396.3398664798       223.6771027149      -314.7643536878 
  139000       301.4298210012     11119.2043974649         0.7991229467       317.6066145624      -581.7969302876       267.1706107215       324.7326419131         9.0422840727      2319.0188048842     -3098.9449270118      -402.8163448672       219.8856685740      -602.6123937655 
  140000       313.2975780089     11468.5691844242         0.7747794202       366.8343760453      -567.9800736936       263.2296834630       305.8281778243        14.0254938973      2345.5929752339     -3098.8418963864      -397.8145077257       131.2644963173     -1408.4279403072 
  141000       286.0992706146     10832.3297786360         0.8202862695       272.8213600789      -580.8390286480       274.0746798776       313.0067723340        10.7511572819      2327.4851445658     -3099.2884867601      -406.8682959472       512.1877780432      1515.1842880937 
  142000       300.2900061454     11541.0687454741         0.7699123521       338.9873394932      -557.0152362078       239.8173626190       342.5073937428        12.3595961659      2320.7926710978     -3099.8149546995      -372.6773051338       920.4503892557      3454.6193756032 
  143000       301.6522847189     10863.5780203432         0.8179267795       316.9823804582      -583.0849495994       272.6594990834       319.3732529418        17.3652541484      2319.7859707090     -3099.7583511436      -412.5105753384       478.3432971738      1018.4731293332 
  144000       294.2147833312     11272.4041962030         0.7882623111       286.9357442459      -590.9396371494       278.9977521246       316.2761440126         8.5897700520      2299.2764980438     -3098.6247737287      -395.4550276537       452.1735724407      1005.1179659771 
  145000       295.6113932783     11238.3805723455         0.7906487351       305.4878641909      -576.5547091996       274.9175026083       318.6912919476        -0.7056554349      2328.4441460698     -3098.8571432012      -399.0448511893        55.6250809383     -1524.4807652516 
  146000       295.9453603488     11403.8958386860         0.7791733202       300.2609864070      -582.7780748759       268.6427202948       302.1993915427        17.9011894624      2321.4003727383     -3097.8068954482      -395.1148534659       539.6943461263      1439.6453813952 
  147000       299.8935931639     11716.5612911563         0.7583804807       337.2912847037      -557.5284775663       277.1797071004       305.9745814082        13.2867213766      2298.0978850403     -3098.4490522957      -353.6183201962       589.7829986042      1477.6482785831 
  148000       290.0568397990     11564.4064159744         0.7683586225       277.7272363290      -587.7417111583       280.0552669487       293.9243831188         9.3502597789      2309.6754694560     -3100.4308352373      -380.3162552234      -215.0716460345     -2921.9345171712 
  149000       299.4284720235     11083.9650317716         0.8016636067       313.1437521013      -580.2881859613       270.4957420039       318.4074004690         9.8821359293      2313.1163661024     -3099.3481126101      -392.8417178558       486.6334808244      1073.2545333030 
  150000       305.5698198188     11568.2087309023         0.7681060733       379.0221776454      -532.7342578370       277.3689243007       326.0438202974        10.4644432170      2355.8693433070     -3099.8142164004      -402.6665725587         6.3118505731     -2209.1714435625 
  151000       291.9565460874     11186.7618514757         0.7942970005       326.2912128891      -544.8460608581       252.1139250104       339.1588509460        23.5958569068      2347.1024670763     -3097.5948047466      -409.2223560511       223.8894653973      -627.6638058419 
  152000       294.7841113398     10917.9071243224         0.8138566561       285.6092374976      -593.9648996061       266.6986955396       316.0041526421        10.5164498009      2308.0222782552     -3100.0183137824      -395.1881620614       239.0401569617      -292.4707092663 
  153000       299.0135592161     11080.4901939004         0.8019150081       337.5332626248      -554.6606623952       289.2890395516       314.3792925421        12.0410435134      2336.0095025827     -3099.0846352036      -407.2949053813       356.5388921039       117.6108517454 
  154000       285.1534127343     11007.8819210272         0.8072044602       271.1633491454      -579.6747974832       283.2293288151       311.7480620204        11.7531294663      2307.4052145718     -3099.0440115404      -394.7665208165       424.8985090000       957.6207590728 
  155000       315.8324868096     11688.5741417164         0.7601963487       349.9067663378      -592.4713211115       272.6294857801       285.6224188677         8.0387851227      2309.7450771402     -3097.2677761964      -371.2393118257       374.7077215785       145.4892761704 
  156000       290.6957623907     11032.2290527185         0.8054230329       292.9846967158      -574.3906621608       263.7005728535       340.8854604465         8.3362979306      2307.1012490120     -3099.2737388288      -395.1405035746        48.0093995039     -1522.5905629506 
  157000       288.8955902897     11131.8995088291         0.7982116059       271.5941547896      -590.4098670256       252.6548302414       325.8589633961        13.6327996113      2319.4565988446     -3099.8253144746      -402.1877446444       303.9269586942       199.1582042656 
  158000       287.7186389473     11426.8242528955         0.7776098754       281.2511694067      -577.2410757503       258.7913497270       332.6414818552         4.6210576763      2317.7770096300     -3099.4577187823      -391.6142558564       319.4702548129       229.3394954765 
  159000       305.5886550722     11005.3578165655         0.8073895944       343.0386402092      -568.7739957302       279.8915266021       307.2217631620        13.0159023495      2359.7543385280     -3098.9504393213      -429.7070870504       400.3340099049       356.9763702693 
  160000       282.1028315911     11444.1345747507         0.7764336679       309.9988389890      -531.7370115068       284.2944519910       321.5356686184        17.6066184108      2317.0942478797     -3099.2762566392      -372.9917417676       170.6698172756      -834.8005801562 
  161000       293.6026542298     11154.1719927485         0.7966177489       306.9430918367      -569.1058243406       250.5537687319       342.4390290292         8.7624269992      2333.1898234068     -3099.1277044588      -404.9231680490       245.5143824649      -377.6227621255 
  162000       281.1142878885     11710.1793104683         0.7587937937       257.1273310805      -581.6589117508       262.2946032339       312.8209176433        11.4492055873      2324.8880910058     -3100.8316983466      -392.2800308745       281.1501831099       140.6647023723 
  163000       301.9814442192     11173.9773632498         0.7952057799       319.3738010708      -581.6756720950       261.7882736534       316.1619695377        11.8701041139      2327.7914685132     -3099.0709364016      -400.2165515117       493.2451252115      1066.9505336107 
  164000       305.4179275507     11519.0591787031         0.7713834303       380.1922964201      -531.1109243009       269.0210782287       354.6713178388         9.3054877944      2317.1988243834     -3098.0020185965      -383.3056139497       796.6022233248      2478.7240203528 
  165000       306.4406534109     11371.6483242410         0.7813828858       337.5337815087      -576.8210392866       267.4919934915       310.9897706973        10.3934871307      2307.4983338922     -3098.7968508242      -374.3977736741       191.6410714976      -879.6993716548 
  166000       292.6040620158     11460.0876253902         0.7753528310       323.3206443271      -549.7486815292       271.6530514249       329.9771793554        11.4161086735      2315.8060002915     -3098.2217610067      -380.3792602678       781.4916433076      2741.3454613957 
  167000       283.4293912499     11488.4893443276         0.7734360121       254.6557687801      -591.0382583009       267.9653780189       307.2955120172         7.0353174994      2313.7595819294     -3098.5232592938      -388.5707884721       657.4234231987      2403.8965306074 
  168000       304.7674272056     11539.8620203051         0.7699928620       367.1747078176      -542.1875559195       278.0957612059       302.0507052640        12.5317382963      2358.7035264981     -3097.5793839505      -395.9899032332        10.7220081395     -2117.9973032945 
  169000       298.0896689075     11403.6043294691         0.7791932381       265.0380785070      -624.3991510545       249.3042868856       306.3361914164         7.6664935544      2298.2675643040     -3100.3966705236      -385.5770166911       478.4989081720      1283.5126800120 
  170000       291.5311264160     11012.5759625865         0.8068603943       289.2902620403      -580.5776483797       246.3364340402       332.2659935715         2.1828129500      2341.2077973080     -3098.7036038151      -403.8670824344       357.3496765504       423.7633587851 
  171000       307.5952930945     11286.1898598243         0.7872994779       339.7300174613      -578.0700066684       268.5632773928       310.4570239727         5.3937522482      2347.2008547824     -3098.4897397217      -411.1951753428        71.4650327994     -1629.8241502873 
  172000       299.0432664507     11427.2204041885         0.7775829177       370.0644443612      -522.2181208340       282.6830027752       327.9262317337        13.1598218944      2330.9787032467     -3099.0221366482      -377.9437438358       468.8163337789       592.5553455802 
  173000       285.8673758579     11018.0502093493         0.8064595110       238.4556129572      -614.5128503142       286.1703297662       299.5706350074         7.2357536738      2316.3572755641     -3098.5129121692      -425.3339321564       231.2387085155       -44.9128193621 
  174000       293.1278554056     11791.9202777643         0.7535338753       336.0103837042      -538.6218320813       265.6750485982       323.2333952420        11.3589378029      2338.8825737564     -3099.2199634679      -378.5518240128      -312.9748691816     -3773.7611093471 
  175000       287.5391242482     11131.7664099004         0.7982211499       322.5456444124      -535.4109664261       293.8281339833       314.0087704693        12.4934782443      2328.4875990608     -3098.0731042644      -386.1558439195       615.6036022136      1805.1510362003 
  176000       310.2767293678     11339.5881434280         0.7835920733       385.7279943592      -540.0728748148       273.4393842418       328.6194032002        14.5282111115      2317.3189191970     -3100.5894205756      -373.3893719896       157.1459623481     -1382.1937299868 
  177000       295.3524374717     11150.7871528353         0.7968595635       311.1653639120      -570.1045395095       289.9133172919       311.5661271518        12.9492442775      2315.7180538174     -3099.4176636636      -400.8336183845      -173.2058008445     -2978.4949334825 
  178000       295.4777648399     11806.0539830163         0.7526317766       314.1006019002      -567.5432521772       267.5712191639       313.0648096481        13.3432323213      2319.8649748542     -3099.5127544878      -381.8747336768       353.2818594656       227.5609388909 
  179000       306.3933581082     11381.3555097255         0.7807164424       351.3523611717      -562.8613403315       270.6157482221       331.5903140029         5.9779541659      2310.7791503468     -3100.0057461523      -381.8187609169       367.9134759969        99.7745297758 
  180000       298.1702657620     11266.2658298511         0.7886917917       316.9007258548      -572.7769878646       264.4039555461       304.7179604716        16.6103424702      2341.2874929014     -3099.4402017582      -400.3565374958       259.0532882850      -352.0693693789 
  181000       292.9755578673     11220.3736312716         0.7919176024       309.3221737106      -564.8556180720       266.2448896637       322.0494000993         9.7731216077      2341.1452373406     -3099.8545713691      -404.2136954142        25.0985262678     -1736.9087386142 
  182000       298.6645802507     11001.4251575133         0.8076782104       295.3225898319      -595.8300549407       271.9409103145       298.5622211026         8.1413194857      2304.8099035050     -3099.3100953142      -379.9743140344      -251.5031388828     -3408.1923898363 
  183000       303.1460898127     10941.1618485029         0.8121268570       323.3221808883      -581.2023511547       267.7549807186       305.9245856551        18.9339406478      2351.6325055743     -3100.1647310619      -425.2836326886       433.6633266847       691.5095107182 
  184000       303.1087455634     11644.8142535902         0.7630530801       319.8973864766      -584.5157181366       269.2143797553       306.5570458735         8.7944175400      2307.2743901304     -3099.8476151253      -376.5083363105       310.8409319455       -53.3273197141 
  185000       303.3960933300     10982.5381373735         0.8090672004       323.4519145299      -581.8185757229       251.7086541290       328.8241920061        12.3653791538      2328.2024065551     -3098.3995147836      -404.5196927832        39.3710121608     -1773.6316472174 
  186000       298.6502842535     11517.7586071839         0.7714705340       307.7399959145      -583.3699925924       268.1252868503       299.2692773905         7.9004192348      2316.3354295733     -3100.1946414973      -374.8057641439       104.2177046994     -1211.6247094363 
  187000       292.0747597104     11055.5652563303         0.8037229375       279.4917198152      -591.9982786601       260.4854493957       327.3749977507         4.7895177177      2337.9923065488     -3098.4970341170      -424.1435159560       530.3543036394      1555.8905724679 
  188000       296.1736180433     11387.4599779300         0.7802979243       354.0480940269      -529.6720404787       284.6350635399       320.1697169363        16.2499287701      2334.7517061085     -3097.5749723620      -387.9034834715       348.4401478485       -33.7676691382 
  189000       301.9286751532     11264.4367237032         0.7888198586       345.8938034478      -554.9982178612       281.9225487515       315.1323631835        10.4637699850      2348.0589225554     -3099.0489189017      -411.5269034349        55.9476032869     -1764.9485604964 
  190000       294.9245159802     11467.6644228797         0.7748405478       331.4977849788      -548.4952902075       256.2247199192       330.1648773198        10.3983308135      2324.9104859349     -3099.5352575457      -370.6584466491       576.4126220353      1464.4152085090 
  191000       304.0065603713     11515.2286330902         0.7716400314       326.1783018879      -580.9136943433       258.8635567211       325.9853470072         7.8282814769      2307.6092441589     -3098.4091485248      -382.7909751827      -146.6721578975     -2815.6285552451 
  192000       294.6215783292     10984.3325085416         0.8089350333       300.8970535825      -578.1921190096       268.7559725855       333.1140545538         8.6776033178      2302.8131417388     -3099.3876283568      -392.1652628486       338.0628661985       232.0032520214 
  193000       306.0778945434     11236.3166650835         0.7907939629       335.9248795245      -577.3475446775       295.0904737384       302.2030458713        16.2515634042      2288.9921369984     -3100.1344363091      -379.7503283806       361.8756403054       158.3617290099 
  194000       300.9170826384     11372.8542705339         0.7813000301       329.6435693776      -568.2300714316       268.9200167926       319.8399719403        14.4661520451      2329.3323248931     -3099.9137799734      -400.8747571293       621.1002414746      1757.2301175657 
  195000       293.9196548529     11088.5259955705         0.8013338641       271.1901911962      -605.8045885431       258.1885165366       310.1097408030        11.6683068324      2305.2905174805     -3099.6194991558      -391.4421710398       129.6460742085      -875.2701448595 
  196000       301.9518457649     11062.2789225360         0.8032351603       336.8409637781      -564.1201937905       265.1628981199       323.0689699536        17.1858623084      2347.5626472827     -3099.3585399387      -417.7420315162       533.1144899334      1216.5815641756 
  197000       303.8149621589     11263.2515160639         0.7889028644       371.2627532047      -535.2575540314       275.9431988632       336.3485205284         5.4841633022      2342.6951508985     -3097.9628206317      -397.7657669920       111.2909003906     -1582.6564706165 
  198000       298.7914149098     11227.8026203536         0.7913936221       302.3141377147      -589.2169551547       269.9401341480       300.8552250268        17.1898861009      2312.9818186131     -3098.4779239881      -391.7060950553       276.8712111795      -155.3804608495 
  199000       301.0422109242     11480.4671680927         0.7739764640       361.8907900917      -536.3562073531       306.0805235429       306.4002486809        14.3217034623      2350.0233464598     -3098.9752333556      -414.2067961434       483.7095889326       727.5768338890 
  200000       301.7392130147     11116.0732005559         0.7993480452       318.4763467818      -581.8503591301       263.2592819719       319.8831736980         8.9050351219      2294.9649747340     -3099.9646407533      -368.8981839027       521.1385399911      1250.1020025754 
  201000       277.5821524326     11025.8307551852         0.8058904205       216.7007314774      -611.5463578639       274.6827971620       311.2619250652        11.4073216000      2298.2525678148     -3099.0401607122      -408.1108087937       -41.1062248407     -1603.2727839935 
  202000       299.3198571296     11270.9140753623         0.7883665268       337.7807810153      -555.3270729193       281.3479587816       327.3967931080        11.2848897818      2318.3211593479     -3100.0761089439      -393.6017649948       626.7803316961      1758.1751571695 
  203000       291.9252536310     11377.7629408409         0.7809629564       313.9817075388      -557.0621960633       281.5790410686       319.2610585249        12.1798335398      2333.3743332237     -3100.1956502441      -403.2608121762       362.4379250972       292.0227862145 
  204000       306.9950531763     10898.8304596530         0.8152811824       318.1493978143      -597.8596359337       279.1416354164       311.1605596834        11.9551592822      2321.8152369487     -3100.1932009083      -421.7390263561      -172.0595972813     -3084.0789694713 
  205000       305.0599054853     10966.1119209346         0.8102791078       318.4455891137      -591.7893686411       272.5913682257       313.8597932997        12.6172400348      2304.4522482349     -3097.4335015686      -397.8765168677       291.8936860049      -166.0225542591 
  206000       292.2370900270     10928.3755523895         0.8130770526       250.8685576371      -621.1058005532       278.7130226360       298.5520640802        10.4979783664      2287.9647262267     -3100.6104944227      -396.2230974398       147.4499230309      -648.8843490432 
  207000       295.2205559994     11249.6616049592         0.7898558815       295.9739787307      -584.9024179593       279.7051835388       323.9202118632        10.3080641303      2324.7802861726     -3099.1422057513      -424.4739579131       289.4891826740       -39.5258277822 
  208000       291.1974681940     11039.8514398965         0.8048669343       295.2892016049      -573.5831424621       292.5900607496       312.9163641197        18.3244393444      2298.4648344125     -3098.4677085805      -397.4111325077       525.9145452099      1432.4118721992 
  209000       302.5155818352     11071.8983573213         0.8025372973       277.6706372900      -624.9725908126       278.3776000646       294.0678602005        10.4076519478      2299.8233057865     -3098.8585008996      -408.7905079123        80.1772706244     -1223.0790681275 
  210000       295.4493834248     11484.0016717177         0.7737382524       336.6713806008      -544.8877892696       263.1881131286       339.3963413824        16.6567722636      2336.4046988031     -3099.7493741803      -400.7843406670       245.4990333927      -544.3697692314 
Loop time of 61.3867 on 64 procs for 100000 steps with 1002 atoms

Performance: 140.747 ns/day, 0.171 hours/ns, 1629.016 timesteps/s
99.0% CPU use with 64 MPI tasks x no OpenMP threads

MPI task timing breakdown:
Section |  min time  |  avg time  |  max time  |%varavg| %total
---------------------------------------------------------------
Pair    | 12.326     | 18.901     | 26.862     |  93.2 | 30.79
Bond    | 0.46718    | 0.50742    | 0.56295    |   2.8 |  0.83
Kspace  | 15.676     | 23.654     | 30.193     |  82.6 | 38.53
Neigh   | 1.5848     | 1.6068     | 1.6886     |   2.1 |  2.62
Comm    | 12.899     | 13.485     | 14.586     |   9.5 | 21.97
Output  | 0.051561   | 0.051622   | 0.052503   |   0.0 |  0.08
Modify  | 2.0975     | 2.4042     | 2.8767     |  17.0 |  3.92
Other   |            | 0.7764     |            |       |  1.26

Nlocal:    15.6562 ave 26 max 6 min
Histogram: 2 1 3 13 16 10 11 3 3 2
Nghost:    4620.36 ave 4742 max 4438 min
Histogram: 2 1 6 4 7 13 9 8 9 5
Neighs:    11709.9 ave 22076 max 3941 min
Histogram: 1 6 13 12 8 9 8 6 0 1

Total # of neighbors = 749431
Ave neighs/atom = 747.935
Ave special neighs/atom = 5
Neighbor list builds = 3764
Dangerous builds = 0
unfix equil
undump equil

# WRITE RESTART FILES, CLEANUP, AND EXIT
write_restart   md-22.end.restart
PPPM initialization ...
WARNING: Using 12-bit tables for long-range coulomb (../kspace.cpp:321)
  G vector (1/distance) = 0.185951
  grid = 8 8 8
  stencil order = 5
  estimated absolute RMS force accuracy = 0.00749627
  estimated relative force accuracy = 2.25748e-05
  using double precision FFTs
  3d grid and FFT values/proc = 343 8
write_data      md-22.end.data pair ii
PPPM initialization ...
WARNING: Using 12-bit tables for long-range coulomb (../kspace.cpp:321)
  G vector (1/distance) = 0.185951
  grid = 8 8 8
  stencil order = 5
  estimated absolute RMS force accuracy = 0.00749627
  estimated relative force accuracy = 2.25748e-05
  using double precision FFTs
  3d grid and FFT values/proc = 343 8
unfix		averages
Total wall time: 0:03:16
